            Time      LoadFactor            F_xx            F_yx            F_zx            F_xy            F_yy            F_zy            F_xz            F_yz            F_zz            P_xx            P_yx            P_zx            P_xy            P_yy            P_zy            P_xz            P_yz            P_zz        sigma_xx        sigma_yy        sigma_zz        sigma_xy        sigma_yz        sigma_xz  EftvCauchyStre     EquivStrain        Pressure     Triaxiality  LodeAngleParam     PrncStreMin     PrncStreMid     PrncStreMax  PrncDevStreMin  PrncDevStreMid  PrncDevStreMax       PiPlaneX1       PiPlaneY1       PiPlaneX2       PiPlaneY2       PiPlaneX3       PiPlaneY3       PiPlaneX4       PiPlaneY4       PiPlaneX5       PiPlaneY5       PiPlaneX6       PiPlaneY6   ElasticEnergy        Porosity      GrpVolFr_1      GrpVolFr_2
  0.00000000E+00  0.00000000E+00  0.10000000E+01  0.00000000E+00  0.00000000E+00  0.00000000E+00  0.10000000E+01  0.00000000E+00  0.00000000E+00  0.00000000E+00  0.10000000E+01  0.00000000E+00  0.00000000E+00  0.00000000E+00  0.00000000E+00  0.00000000E+00  0.00000000E+00  0.00000000E+00  0.00000000E+00  0.00000000E+00  0.00000000E+00  0.00000000E+00  0.00000000E+00  0.00000000E+00  0.00000000E+00  0.00000000E+00  0.00000000E+00  0.00000000E+00  0.00000000E+00             NaN  0.00000000E+00  0.00000000E+00  0.00000000E+00  0.00000000E+00  0.00000000E+00  0.00000000E+00  0.00000000E+00  0.00000000E+00  0.00000000E+00  0.00000000E+00  0.00000000E+00  0.00000000E+00  0.00000000E+00  0.00000000E+00  0.00000000E+00  0.00000000E+00  0.00000000E+00  0.00000000E+00  0.00000000E+00  0.00000000E+00  0.36115555E-12  0.79637500E+00  0.20362500E+00
  0.10000000E-01  0.10000000E-01  0.10000000E+01  0.00000000E+00  0.00000000E+00  0.20000000E-02  0.10000000E+01  0.00000000E+00  0.00000000E+00  0.00000000E+00  0.10000000E+01 -0.58027665E-04  0.10337929E+00 -0.20835169E-03  0.10338022E+00  0.46364655E-03  0.14670034E-03 -0.20805829E-03  0.14670034E-03  0.16073428E-04  0.14873277E-03  0.46364655E-03  0.16073428E-04  0.10338022E+00  0.14670034E-03 -0.20805829E-03  0.17906077E+00  0.11547003E-02  0.20948425E-03  0.11699059E-02  0.30848960E-02 -0.10307476E+00  0.16665992E-04  0.10368654E+00 -0.10328424E+00 -0.19281826E-03  0.10347706E+00  0.72896645E-01  0.12673300E+00  0.14620232E+00 -0.23615317E-03 -0.72896645E-01  0.12673300E+00  0.73305674E-01 -0.12649685E+00 -0.73305674E-01 -0.12649685E+00 -0.14620232E+00 -0.23615317E-03  0.70177253E+03 -0.12212453E-13  0.79637386E+00  0.20362614E+00
  0.20000000E-01  0.20000000E-01  0.10000000E+01  0.00000000E+00  0.00000000E+00  0.40000000E-02  0.10000000E+01  0.00000000E+00  0.00000000E+00  0.00000000E+00  0.10000000E+01 -0.35238641E-03  0.20675700E+00 -0.41606396E-03  0.20675979E+00  0.69833742E-03  0.29212713E-03 -0.41489545E-03  0.29212713E-03  0.13558300E-04  0.47465275E-03  0.69833742E-03  0.13558300E-04  0.20675979E+00  0.29212713E-03 -0.41489545E-03  0.35812005E+00  0.23093995E-02  0.39551616E-03  0.11044234E-02  0.30460733E-02 -0.20617454E+00  0.14734375E-04  0.20734635E+00 -0.20657005E+00 -0.38078178E-03  0.20695084E+00  0.14579783E+00  0.25346197E+00  0.29240342E+00 -0.46636053E-03 -0.14579783E+00  0.25346197E+00  0.14660559E+00 -0.25299561E+00 -0.14660559E+00 -0.25299561E+00 -0.29240342E+00 -0.46636053E-03  0.28070593E+04  0.55511151E-14  0.79637283E+00  0.20362717E+00
  0.30000000E-01  0.30000000E-01  0.10000000E+01  0.00000000E+00  0.00000000E+00  0.60000000E-02  0.10000000E+01  0.00000000E+00  0.00000000E+00  0.00000000E+00  0.10000000E+01 -0.88311965E-03  0.31013393E+00 -0.62312653E-03  0.31013815E+00  0.70408535E-03  0.43625935E-03 -0.62050897E-03  0.43625935E-03 -0.75389740E-05  0.97770928E-03  0.70408535E-03 -0.75389740E-05  0.31013815E+00  0.43625935E-03 -0.62050897E-03  0.53717737E+00  0.34640964E-02  0.55808522E-03  0.10389217E-02  0.30071629E-02 -0.30929909E+00 -0.57884817E-05  0.31097914E+00 -0.30985718E+00 -0.56387370E-03  0.31042105E+00  0.21870339E+00  0.38018659E+00  0.43860294E+00 -0.69060143E-03 -0.21870339E+00  0.38018659E+00  0.21989955E+00 -0.37949599E+00 -0.21989955E+00 -0.37949599E+00 -0.43860294E+00 -0.69060143E-03  0.63158009E+04 -0.47739590E-13  0.79637191E+00  0.20362809E+00
  0.40000000E-01  0.40000000E-01  0.10000000E+01  0.00000000E+00  0.00000000E+00  0.80000000E-02  0.10000000E+01  0.00000000E+00  0.00000000E+00  0.00000000E+00  0.10000000E+01 -0.16502680E-02  0.41351090E+00 -0.82952895E-03  0.41351475E+00  0.48090475E-03  0.57907597E-03 -0.82489635E-03  0.57907597E-03 -0.47211921E-04  0.16578500E-02  0.48090475E-03 -0.47211921E-04  0.41351475E+00  0.57907597E-03 -0.82489635E-03  0.71623228E+00  0.46187898E-02  0.69718093E-03  0.97340060E-03  0.29681643E-02 -0.41244818E+00 -0.44896148E-04  0.41458462E+00 -0.41314536E+00 -0.74207708E-03  0.41388744E+00  0.29161316E+00  0.50690652E+00  0.58480050E+00 -0.90885510E-03 -0.29161316E+00  0.50690652E+00  0.29318734E+00 -0.50599766E+00 -0.29318734E+00 -0.50599766E+00 -0.58480050E+00 -0.90885510E-03  0.11227921E+05 -0.24202862E-13  0.79637110E+00  0.20362890E+00
  0.50000000E-01  0.50000000E-01  0.10000000E+01  0.00000000E+00  0.00000000E+00  0.10000000E-01  0.10000000E+01  0.00000000E+00  0.00000000E+00  0.00000000E+00  0.10000000E+01 -0.26538692E-02  0.51688872E+00 -0.10352613E-02  0.51688901E+00  0.28811467E-04  0.72055587E-03 -0.10280557E-02  0.72055587E-03 -0.10545427E-03  0.25150209E-02  0.28811467E-04 -0.10545427E-03  0.51688901E+00  0.72055587E-03 -0.10280557E-02  0.89528431E+00  0.57734786E-02  0.81279270E-03  0.90785987E-03  0.29290779E-02 -0.51562155E+00 -0.10258239E-03  0.51816251E+00 -0.51643434E+00 -0.91537509E-03  0.51734972E+00  0.36452696E+00  0.63362142E+00  0.73099572E+00 -0.11211009E-02 -0.36452696E+00  0.63362142E+00  0.36646876E+00 -0.63250031E+00 -0.36646876E+00 -0.63250031E+00 -0.73099572E+00 -0.11211009E-02  0.17543324E+05 -0.28865799E-13  0.79637040E+00  0.20362960E+00
  0.60000000E-01  0.60000000E-01  0.10000000E+01  0.00000000E+00  0.00000000E+00  0.12000000E-01  0.10000000E+01  0.00000000E+00  0.00000000E+00  0.00000000E+00  0.10000000E+01 -0.38939587E-02  0.62026820E+00 -0.12403131E-02  0.62026037E+00 -0.65217679E-03  0.86067794E-03 -0.12299849E-02  0.86067794E-03 -0.18225935E-03  0.35491658E-02 -0.65217679E-03 -0.18225935E-03  0.62026037E+00  0.86067794E-03 -0.12299849E-02  0.10743330E+01  0.69281617E-02  0.90490989E-03  0.84229924E-03  0.28899024E-02 -0.61881897E+00 -0.17884058E-03  0.62171254E+00 -0.61972388E+00 -0.10837505E-02  0.62080763E+00  0.43744463E+00  0.76033096E+00  0.87718824E+00 -0.13273178E-02 -0.43744463E+00  0.76033096E+00  0.43974361E+00 -0.75900364E+00 -0.43974361E+00 -0.75900364E+00 -0.87718824E+00 -0.13273178E-02  0.25261901E+05 -0.56621374E-13  0.79636981E+00  0.20363019E+00
  0.70000000E-01  0.70000000E-01  0.10000000E+01  0.00000000E+00  0.00000000E+00  0.14000000E-01  0.10000000E+01  0.00000000E+00  0.00000000E+00  0.00000000E+00  0.10000000E+01 -0.53705689E-02  0.72365015E+00 -0.14446738E-02  0.72362828E+00 -0.15620406E-02  0.99942114E-03 -0.14306819E-02  0.99942114E-03 -0.27762109E-03  0.47602270E-02 -0.15620406E-02 -0.27762109E-03  0.72362828E+00  0.99942114E-03 -0.14306819E-02  0.12533780E+01  0.80828378E-02  0.97352175E-03  0.77671843E-03  0.28506383E-02 -0.72204018E+00 -0.27366468E-03  0.72523441E+00 -0.72301370E+00 -0.12471864E-02  0.72426089E+00  0.51036600E+00  0.88703481E+00  0.10233777E+01 -0.15274852E-02 -0.51036600E+00  0.88703481E+00  0.51301168E+00 -0.88550732E+00 -0.51301168E+00 -0.88550732E+00 -0.10233777E+01 -0.15274852E-02  0.34383520E+05 -0.53290705E-13  0.79636933E+00  0.20363067E+00
  0.80000000E-01  0.80000000E-01  0.10000000E+01  0.00000000E+00  0.00000000E+00  0.16000000E-01  0.10000000E+01  0.00000000E+00  0.00000000E+00  0.00000000E+00  0.10000000E+01 -0.70837298E-02  0.82703538E+00 -0.16483333E-02  0.82699217E+00 -0.27007592E-02  0.11367643E-02 -0.16301451E-02  0.11367643E-02 -0.39153311E-03  0.61481448E-02 -0.27007592E-02 -0.39153311E-03  0.82699217E+00  0.11367643E-02 -0.16301451E-02  0.14324186E+01  0.92375058E-02  0.10186175E-02  0.71111719E-03  0.28112853E-02 -0.82528494E+00 -0.38704833E-03  0.82872785E+00 -0.82630356E+00 -0.14056659E-02  0.82770923E+00  0.58329090E+00  0.10137326E+01  0.11695637E+01 -0.17215821E-02 -0.58329090E+00  0.10137326E+01  0.58627276E+00 -0.10120111E+01 -0.58627276E+00 -0.10120111E+01 -0.11695637E+01 -0.17215821E-02  0.44908036E+05 -0.78603790E-13  0.79636895E+00  0.20363105E+00
  0.90000000E-01  0.90000000E-01  0.10000000E+01  0.00000000E+00  0.00000000E+00  0.18000000E-01  0.10000000E+01  0.00000000E+00  0.00000000E+00  0.00000000E+00  0.10000000E+01 -0.90334685E-02  0.93042470E+00 -0.18512813E-02  0.93035147E+00 -0.40683098E-02  0.12726863E-02 -0.18283729E-02  0.12726863E-02 -0.52398913E-03  0.77128580E-02 -0.40683098E-02 -0.52398913E-03  0.93035147E+00  0.12726863E-02 -0.18283729E-02  0.16114546E+01  0.10392165E-01  0.10401864E-02  0.64549527E-03  0.27718431E-02 -0.92855302E+00 -0.51898531E-03  0.93219257E+00 -0.92959321E+00 -0.15591717E-02  0.93115238E+00  0.65621916E+00  0.11404241E+01  0.13157458E+01 -0.19095875E-02 -0.65621916E+00  0.11404241E+01  0.65952666E+00 -0.11385145E+01 -0.65952666E+00 -0.11385145E+01 -0.13157458E+01 -0.19095875E-02  0.56835286E+05 -0.14965806E-12  0.79636869E+00  0.20363131E+00
  0.10000000E+00  0.10000000E+00  0.10000000E+01  0.00000000E+00  0.00000000E+00  0.20000000E-01  0.10000000E+01  0.00000000E+00  0.00000000E+00  0.00000000E+00  0.10000000E+01 -0.11219809E-01  0.10338189E+01 -0.20535073E-02  0.10337056E+01 -0.56646684E-02  0.14071660E-02 -0.20253639E-02  0.14071660E-02 -0.67498290E-03  0.94543033E-02 -0.56646684E-02 -0.67498290E-03  0.10337056E+01  0.14071660E-02 -0.20253639E-02  0.17904855E+01  0.11546813E-01  0.10382173E-02  0.57985242E-03  0.27323113E-02 -0.10318442E+01 -0.66946939E-03  0.10356283E+01 -0.10328824E+01 -0.17076867E-02  0.10345901E+01  0.72915062E+00  0.12671089E+01  0.14619238E+01 -0.20914806E-02 -0.72915062E+00  0.12671089E+01  0.73277317E+00 -0.12650174E+01 -0.73277317E+00 -0.12650174E+01 -0.14619238E+01 -0.20914806E-02  0.70165088E+05 -0.22271074E-12  0.79636854E+00  0.20363146E+00
  0.11000000E+00  0.11000000E+00  0.10000000E+01  0.00000000E+00  0.00000000E+00  0.22000000E-01  0.10000000E+01  0.00000000E+00  0.00000000E+00  0.00000000E+00  0.10000000E+01 -0.13642775E-01  0.11372189E+01 -0.22550010E-02  0.11370541E+01 -0.74898090E-02  0.15401823E-02 -0.22211170E-02  0.15401823E-02 -0.84450822E-03  0.11372416E-01 -0.74898090E-02 -0.84450822E-03  0.11370541E+01  0.15401823E-02 -0.22211170E-02  0.19695108E+01  0.12701450E-01  0.10126995E-02  0.51418836E-03  0.26926899E-02 -0.11351581E+01 -0.83849441E-03  0.11390347E+01 -0.11361708E+01 -0.18511939E-02  0.11380220E+01  0.80208511E+00  0.13937866E+01  0.16080972E+01 -0.22672403E-02 -0.80208511E+00  0.13937866E+01  0.80601209E+00 -0.13915194E+01 -0.80601209E+00 -0.13915194E+01 -0.16080972E+01 -0.22672403E-02  0.84897243E+05 -0.26623148E-12  0.79636849E+00  0.20363151E+00
  0.12000000E+00  0.12000000E+00  0.10000000E+01  0.00000000E+00  0.00000000E+00  0.24000000E-01  0.10000000E+01  0.00000000E+00  0.00000000E+00  0.00000000E+00  0.10000000E+01 -0.16302383E-01  0.12406254E+01 -0.24557520E-02  0.12403963E+01 -0.95437041E-02  0.16717140E-02 -0.24156309E-02  0.16717140E-02 -0.10325591E-02  0.13467129E-01 -0.95437041E-02 -0.10325591E-02  0.12403963E+01  0.16717140E-02 -0.24156309E-02  0.21485300E+01  0.13856074E-01  0.96362180E-03  0.44850285E-03  0.26529787E-02 -0.12384947E+01 -0.10260544E-02  0.12424116E+01 -0.12394583E+01 -0.19896762E-02  0.12414480E+01  0.87502246E+00  0.15204571E+01  0.17542657E+01 -0.24368457E-02 -0.87502246E+00  0.15204571E+01  0.87924320E+00 -0.15180202E+01 -0.87924320E+00 -0.15180202E+01 -0.17542657E+01 -0.24368457E-02  0.10103154E+06 -0.38369308E-12  0.79636856E+00  0.20363144E+00
  0.13000000E+00  0.13000000E+00  0.10000000E+01  0.00000000E+00  0.00000000E+00  0.26000000E-01  0.10000000E+01  0.00000000E+00  0.00000000E+00  0.00000000E+00  0.10000000E+01 -0.19198684E-01  0.13440391E+01 -0.26557618E-02  0.13437316E+01 -0.11826350E-01  0.18017268E-02 -0.26089169E-02  0.18017268E-02 -0.12391296E-02  0.15738339E-01 -0.11826350E-01 -0.12391296E-02  0.13437316E+01  0.18017268E-02 -0.26089169E-02  0.23275425E+01  0.15010684E-01  0.89095311E-03  0.38278703E-03  0.26131533E-02 -0.13418536E+01 -0.12321434E-02  0.13457586E+01 -0.13427445E+01 -0.21230966E-02  0.13448676E+01  0.94796249E+00  0.16471197E+01  0.19004288E+01 -0.26002516E-02 -0.94796249E+00  0.16471197E+01  0.95246626E+00 -0.16445195E+01 -0.95246626E+00 -0.16445195E+01 -0.19004288E+01 -0.26002516E-02  0.11856773E+06 -0.45097259E-12  0.79636873E+00  0.20363127E+00
  0.14000000E+00  0.14000000E+00  0.10000000E+01  0.00000000E+00  0.00000000E+00  0.28000000E-01  0.10000000E+01  0.00000000E+00  0.00000000E+00  0.00000000E+00  0.10000000E+01 -0.22332925E-01  0.14474590E+01 -0.28553809E-02  0.14470575E+01 -0.14338680E-01  0.19298845E-02 -0.28013441E-02  0.19298845E-02 -0.14641755E-02  0.18184686E-01 -0.14338680E-01 -0.14641755E-02  0.14470575E+01  0.19298845E-02 -0.28013441E-02  0.25065446E+01  0.16165280E-01  0.79394371E-03  0.31674828E-03  0.25723347E-02 -0.14452336E+01 -0.14567177E-02  0.14490722E+01 -0.14460276E+01 -0.22506614E-02  0.14482782E+01  0.10209044E+01  0.17737713E+01  0.20465833E+01 -0.27564860E-02 -0.10209044E+01  0.17737713E+01  0.10256788E+01 -0.17710149E+01 -0.10256788E+01 -0.17710149E+01 -0.20465833E+01 -0.27564860E-02  0.13750522E+06 -0.63593575E-12  0.79636902E+00  0.20363098E+00
  0.15000000E+00  0.15000000E+00  0.10000000E+01  0.00000000E+00  0.00000000E+00  0.30000000E-01  0.10000000E+01  0.00000000E+00  0.00000000E+00  0.00000000E+00  0.10000000E+01 -0.25710526E-01  0.15508684E+01 -0.30559714E-02  0.15503558E+01 -0.17084300E-01  0.20557092E-02 -0.29943002E-02  0.20557092E-02 -0.17070975E-02  0.20800149E-01 -0.17084300E-01 -0.17070975E-02  0.15503558E+01  0.20557092E-02 -0.29943002E-02  0.26855052E+01  0.17319859E-01  0.66958394E-03  0.24933258E-03  0.25268984E-02 -0.15486218E+01 -0.16991759E-02  0.15523298E+01 -0.15492914E+01 -0.23687598E-02  0.15516602E+01  0.10938395E+01  0.19003879E+01  0.21927039E+01 -0.29011264E-02 -0.10938395E+01  0.19003879E+01  0.10988644E+01 -0.18974867E+01 -0.10988644E+01 -0.18974867E+01 -0.21927039E+01 -0.29011264E-02  0.15784034E+06 -0.83177909E-12  0.79636944E+00  0.20363056E+00
  0.16000000E+00  0.16000000E+00  0.10000000E+01  0.00000000E+00  0.00000000E+00  0.32000000E-01  0.10000000E+01  0.00000000E+00  0.00000000E+00  0.00000000E+00  0.10000000E+01 -0.29341599E-01  0.16542325E+01 -0.32619466E-02  0.16535903E+01 -0.20068556E-01  0.21770100E-02 -0.31922823E-02  0.21770100E-02 -0.19661451E-02  0.23573291E-01 -0.20068556E-01 -0.19661451E-02  0.16535903E+01  0.21770100E-02 -0.31922823E-02  0.28643620E+01  0.18474420E-01  0.51286341E-03  0.17904979E-03  0.24709966E-02 -0.16519906E+01 -0.19577642E-02  0.16554870E+01 -0.16525035E+01 -0.24706276E-02  0.16549741E+01  0.11667494E+01  0.20269211E+01  0.23387399E+01 -0.30258885E-02 -0.11667494E+01  0.20269211E+01  0.11719904E+01 -0.20238952E+01 -0.11719904E+01 -0.20238952E+01 -0.23387399E+01 -0.30258885E-02  0.17956508E+06 -0.95656816E-12  0.79637002E+00  0.20362998E+00
  0.17000000E+00  0.17000000E+00  0.10000000E+01  0.00000000E+00  0.00000000E+00  0.34000000E-01  0.10000000E+01  0.00000000E+00  0.00000000E+00  0.00000000E+00  0.10000000E+01 -0.33237379E-01  0.17574947E+01 -0.34777413E-02  0.17567027E+01 -0.23296090E-01  0.22881350E-02 -0.33999447E-02  0.22881350E-02 -0.22412409E-02  0.26490511E-01 -0.23296090E-01 -0.22412409E-02  0.17567027E+01  0.22881350E-02 -0.33999447E-02  0.30430144E+01  0.19628964E-01  0.31772663E-03  0.10441180E-03  0.24007845E-02 -0.17552910E+01 -0.22324158E-02  0.17584766E+01 -0.17556087E+01 -0.25501424E-02  0.17581589E+01  0.12395996E+01  0.21532961E+01  0.24846089E+01 -0.31232738E-02 -0.12395996E+01  0.21532961E+01  0.12450093E+01 -0.21501728E+01 -0.12450093E+01 -0.21501728E+01 -0.24846089E+01 -0.31232738E-02  0.20266522E+06 -0.12139179E-11  0.79637078E+00  0.20362922E+00
  0.18000000E+00  0.18000000E+00  0.10000000E+01  0.00000000E+00  0.00000000E+00  0.36000000E-01  0.10000000E+01  0.00000000E+00  0.00000000E+00  0.00000000E+00  0.10000000E+01 -0.37427307E-01  0.18604348E+01 -0.36998376E-02  0.18594709E+01 -0.26776796E-01  0.23837799E-02 -0.36140215E-02  0.23837799E-02 -0.25293329E-02  0.29513645E-01 -0.26776796E-01 -0.25293329E-02  0.18594709E+01  0.23837799E-02 -0.36140215E-02  0.32210780E+01  0.20783487E-01  0.69171844E-04  0.21474750E-04  0.23028755E-02 -0.18583251E+01 -0.25201079E-02  0.18610527E+01 -0.18583943E+01 -0.25892797E-02  0.18609836E+01  0.13122523E+01  0.22792301E+01  0.26299973E+01 -0.31712071E-02 -0.13122523E+01  0.22792301E+01  0.13177450E+01 -0.22760589E+01 -0.13177450E+01 -0.22760589E+01 -0.26299973E+01 -0.31712071E-02  0.22708595E+06 -0.13915535E-11  0.79637182E+00  0.20362818E+00
  0.19000000E+00  0.19000000E+00  0.10000000E+01  0.00000000E+00  0.00000000E+00  0.38000000E-01  0.10000000E+01  0.00000000E+00  0.00000000E+00  0.00000000E+00  0.10000000E+01 -0.41927412E-01  0.19628487E+01 -0.39332700E-02  0.19616884E+01 -0.30535761E-01  0.24454424E-02 -0.38403432E-02  0.24454424E-02 -0.28277726E-02  0.32616746E-01 -0.30535761E-01 -0.28277726E-02  0.19616884E+01  0.24454424E-02 -0.38403432E-02  0.33981954E+01  0.21937990E-01 -0.24892935E-03 -0.73253396E-04  0.21660223E-02 -0.19609120E+01 -0.28182514E-02  0.19629835E+01 -0.19606631E+01 -0.25693221E-02  0.19632324E+01  0.13845814E+01  0.24044588E+01  0.27746131E+01 -0.31467640E-02 -0.13845814E+01  0.24044588E+01  0.13900317E+01 -0.24013121E+01 -0.13900317E+01 -0.24013121E+01 -0.27746131E+01 -0.31467640E-02  0.25276771E+06 -0.14832580E-11  0.79637322E+00  0.20362678E+00
  0.20000000E+00  0.20000000E+00  0.10000000E+01  0.00000000E+00  0.00000000E+00  0.40000000E-01  0.10000000E+01  0.00000000E+00  0.00000000E+00  0.00000000E+00  0.10000000E+01 -0.46661456E-01  0.20644331E+01 -0.41508202E-02  0.20630529E+01 -0.34506989E-01  0.24892684E-02 -0.40512494E-02  0.24892684E-02 -0.31664176E-02  0.35860659E-01 -0.34506989E-01 -0.31664176E-02  0.20630529E+01  0.24892684E-02 -0.40512494E-02  0.35738435E+01  0.23092471E-01 -0.60424947E-03 -0.16907552E-03  0.20460483E-02 -0.20626864E+01 -0.31567081E-02  0.20640303E+01 -0.20620821E+01 -0.25524586E-02  0.20646346E+01  0.14563074E+01  0.25286506E+01  0.29180294E+01 -0.31261106E-02 -0.14563074E+01  0.25286506E+01  0.14617220E+01 -0.25255245E+01 -0.14617220E+01 -0.25255245E+01 -0.29180294E+01 -0.31261106E-02  0.27961679E+06 -0.11899370E-11  0.79637481E+00  0.20362519E+00
  0.21000000E+00  0.21000000E+00  0.10000000E+01  0.00000000E+00  0.00000000E+00  0.42000000E-01  0.10000000E+01  0.00000000E+00  0.00000000E+00  0.00000000E+00  0.10000000E+01 -0.51584387E-01  0.21643639E+01 -0.42847582E-02  0.21627401E+01 -0.38661138E-01  0.25694131E-02 -0.41768428E-02  0.25694131E-02 -0.35506189E-02  0.39250699E-01 -0.38661138E-01 -0.35506189E-02  0.21627401E+01  0.25694131E-02 -0.41768428E-02  0.37465950E+01  0.24246929E-01 -0.98701932E-03 -0.26344436E-03  0.19526938E-02 -0.21628067E+01 -0.35407682E-02  0.21633864E+01 -0.21618197E+01 -0.25537488E-02  0.21643734E+01  0.15268316E+01  0.26508052E+01  0.30590804E+01 -0.31276908E-02 -0.15268316E+01  0.26508052E+01  0.15322489E+01 -0.26476775E+01 -0.15322489E+01 -0.26476775E+01 -0.30590804E+01 -0.31276908E-02  0.30738328E+06 -0.44209081E-12  0.79637655E+00  0.20362345E+00
  0.22000000E+00  0.22000000E+00  0.10000000E+01  0.00000000E+00  0.00000000E+00  0.44000000E-01  0.10000000E+01  0.00000000E+00  0.00000000E+00  0.00000000E+00  0.10000000E+01 -0.56720888E-01  0.22613725E+01 -0.42759741E-02  0.22594816E+01 -0.42975211E-01  0.27395504E-02 -0.41554339E-02  0.27395504E-02 -0.39552373E-02  0.42696304E-01 -0.42975211E-01 -0.39552373E-02  0.22594816E+01  0.27395504E-02 -0.41554339E-02  0.39142516E+01  0.25401363E-01 -0.14113814E-02 -0.36057504E-03  0.18544888E-02 -0.22600376E+01 -0.39452276E-02  0.22597487E+01 -0.22586262E+01 -0.25338462E-02  0.22611601E+01  0.15952982E+01  0.27693442E+01  0.31959715E+01 -0.31033151E-02 -0.15952982E+01  0.27693442E+01  0.16006733E+01 -0.27662409E+01 -0.16006733E+01 -0.27662409E+01 -0.31959715E+01 -0.31033151E-02  0.33565735E+06  0.70254913E-12  0.79637851E+00  0.20362149E+00
  0.23000000E+00  0.23000000E+00  0.10000000E+01  0.00000000E+00  0.00000000E+00  0.46000000E-01  0.10000000E+01  0.00000000E+00  0.00000000E+00  0.00000000E+00  0.10000000E+01 -0.62078638E-01  0.23547542E+01 -0.41296472E-02  0.23525696E+01 -0.47491429E-01  0.30585893E-02 -0.39889521E-02  0.30585893E-02 -0.43562899E-02  0.46139565E-01 -0.47491429E-01 -0.43562899E-02  0.23525696E+01  0.30585893E-02 -0.39889521E-02  0.40755878E+01  0.26555771E-01 -0.19027178E-02 -0.46685728E-03  0.17173905E-02 -0.23537219E+01 -0.43459606E-02  0.23523597E+01 -0.23518192E+01 -0.24432427E-02  0.23542624E+01  0.16612596E+01  0.28833708E+01  0.33277022E+01 -0.29923490E-02 -0.16612596E+01  0.28833708E+01  0.16664425E+01 -0.28803784E+01 -0.16664425E+01 -0.28803784E+01 -0.33277022E+01 -0.29923490E-02  0.36414288E+06  0.24144020E-11  0.79638085E+00  0.20361915E+00
  0.24000000E+00  0.24000000E+00  0.10000000E+01  0.00000000E+00  0.00000000E+00  0.48000000E-01  0.10000000E+01  0.00000000E+00  0.00000000E+00  0.00000000E+00  0.10000000E+01 -0.67636412E-01  0.24438093E+01 -0.39347933E-02  0.24413014E+01 -0.52248690E-01  0.35272831E-02 -0.37654837E-02  0.35272831E-02 -0.47859514E-02  0.49546054E-01 -0.52248690E-01 -0.47859514E-02  0.24413014E+01  0.35272831E-02 -0.37654837E-02  0.42293877E+01  0.27710153E-01 -0.24961958E-02 -0.59020264E-03  0.15436058E-02 -0.24431941E+01 -0.47750746E-02  0.24404806E+01 -0.24406979E+01 -0.22788788E-02  0.24429768E+01  0.17242226E+01  0.29920233E+01  0.34532795E+01 -0.27910451E-02 -0.17242226E+01  0.29920233E+01  0.17290569E+01 -0.29892323E+01 -0.17290569E+01 -0.29892323E+01 -0.34532795E+01 -0.27910451E-02  0.39251663E+06  0.55393468E-11  0.79638375E+00  0.20361625E+00
  0.25000000E+00  0.25000000E+00  0.10000000E+01  0.00000000E+00  0.00000000E+00  0.50000000E-01  0.10000000E+01  0.00000000E+00  0.00000000E+00  0.00000000E+00  0.10000000E+01 -0.73413984E-01  0.25275770E+01 -0.37746555E-02  0.25247143E+01 -0.57253865E-01  0.41071521E-02 -0.35692979E-02  0.41071521E-02 -0.52168615E-02  0.52821730E-01 -0.57253865E-01 -0.52168615E-02  0.25247143E+01  0.41071521E-02 -0.35692979E-02  0.43739835E+01  0.28864507E-01 -0.32163319E-02 -0.73533242E-03  0.13026343E-02 -0.25275419E+01 -0.52052046E-02  0.25230981E+01 -0.25243255E+01 -0.19888727E-02  0.25263144E+01  0.17835614E+01  0.30940906E+01  0.35713418E+01 -0.24358617E-02 -0.17835614E+01  0.30940906E+01  0.17877804E+01 -0.30916548E+01 -0.17877804E+01 -0.30916548E+01 -0.35713418E+01 -0.24358617E-02  0.42033802E+06  0.94838581E-11  0.79638735E+00  0.20361265E+00
  0.26000000E+00  0.26000000E+00  0.10000000E+01  0.00000000E+00  0.00000000E+00  0.52000000E-01  0.10000000E+01  0.00000000E+00  0.00000000E+00  0.00000000E+00  0.10000000E+01 -0.79333521E-01  0.26047977E+01 -0.36648832E-02  0.26015556E+01 -0.62347652E-01  0.47367027E-02 -0.34185746E-02  0.47367027E-02 -0.56576403E-02  0.55947369E-01 -0.62347652E-01 -0.56576403E-02  0.26015556E+01  0.47367027E-02 -0.34185746E-02  0.45072029E+01  0.30018833E-01 -0.40193079E-02 -0.89175216E-03  0.10333523E-02 -0.26054408E+01 -0.56450920E-02  0.25990280E+01 -0.26014215E+01 -0.16257841E-02  0.26030473E+01  0.18383332E+01  0.31880688E+01  0.36801152E+01 -0.19911707E-02 -0.18383332E+01  0.31880688E+01  0.18417820E+01 -0.31860777E+01 -0.18417820E+01 -0.31860777E+01 -0.36801152E+01 -0.19911707E-02  0.44703005E+06  0.13902213E-10  0.79639142E+00  0.20360858E+00
  0.27000000E+00  0.27000000E+00  0.10000000E+01  0.00000000E+00  0.00000000E+00  0.54000000E-01  0.10000000E+01  0.00000000E+00  0.00000000E+00  0.00000000E+00  0.10000000E+01 -0.85268889E-01  0.26743400E+01 -0.35724495E-02  0.26706997E+01 -0.67412871E-01  0.54169887E-02 -0.32799321E-02  0.54169887E-02 -0.61638850E-02  0.58948894E-01 -0.67412871E-01 -0.61638850E-02  0.26706997E+01  0.54169887E-02 -0.32799321E-02  0.46270952E+01  0.31173128E-01 -0.48759542E-02 -0.10537830E-02  0.78905919E-03 -0.26756931E+01 -0.61504117E-02  0.26672157E+01 -0.26708172E+01 -0.12744575E-02  0.26720916E+01  0.18876518E+01  0.32726305E+01  0.37780071E+01 -0.15608853E-02 -0.18876518E+01  0.32726305E+01  0.18903553E+01 -0.32710696E+01 -0.18903553E+01 -0.32710696E+01 -0.37780071E+01 -0.15608853E-02  0.47200734E+06  0.17842616E-10  0.79639582E+00  0.20360418E+00
  0.28000000E+00  0.28000000E+00  0.10000000E+01  0.00000000E+00  0.00000000E+00  0.56000000E-01  0.10000000E+01  0.00000000E+00  0.00000000E+00  0.00000000E+00  0.10000000E+01 -0.91131213E-01  0.27354006E+01 -0.36019386E-02  0.27313487E+01 -0.72355510E-01  0.61623502E-02 -0.32568470E-02  0.61623502E-02 -0.67500464E-02  0.61824313E-01 -0.72355510E-01 -0.67500464E-02  0.27313487E+01  0.61623502E-02 -0.32568470E-02  0.47322773E+01  0.32327392E-01 -0.57604146E-02 -0.12172606E-02  0.59004973E-03 -0.27374545E+01 -0.67351038E-02  0.27269083E+01 -0.27316941E+01 -0.97468920E-03  0.27326688E+01  0.19309102E+01  0.33468220E+01  0.38638880E+01 -0.11937456E-02 -0.19309102E+01  0.33468220E+01  0.19329778E+01 -0.33456283E+01 -0.19329778E+01 -0.33456283E+01 -0.38638880E+01 -0.11937456E-02  0.49475700E+06  0.20300650E-10  0.79640041E+00  0.20359959E+00
  0.29000000E+00  0.29000000E+00  0.10000000E+01  0.00000000E+00  0.00000000E+00  0.58000000E-01  0.10000000E+01  0.00000000E+00  0.00000000E+00  0.00000000E+00  0.10000000E+01 -0.96885254E-01  0.27878847E+01 -0.37788447E-02  0.27834135E+01 -0.77090086E-01  0.69406763E-02 -0.33762854E-02  0.69406763E-02 -0.73875124E-02  0.64552727E-01 -0.77090086E-01 -0.73875124E-02  0.27834135E+01  0.69406763E-02 -0.33762854E-02  0.48225925E+01  0.33481624E-01 -0.66416239E-02 -0.13771895E-02  0.43288334E-03 -0.27906023E+01 -0.73703408E-02  0.27780478E+01 -0.27839607E+01 -0.72871682E-03  0.27846894E+01  0.19680422E+01  0.34105340E+01  0.39376302E+01 -0.89249219E-03 -0.19680422E+01  0.34105340E+01  0.19695880E+01 -0.34096415E+01 -0.19695880E+01 -0.34096415E+01 -0.39376302E+01 -0.89249219E-03  0.51500453E+06  0.20323743E-10  0.79640501E+00  0.20359499E+00
  0.30000000E+00  0.30000000E+00  0.10000000E+01  0.00000000E+00  0.00000000E+00  0.60000000E-01  0.10000000E+01  0.00000000E+00  0.00000000E+00  0.00000000E+00  0.10000000E+01 -0.10246028E+00  0.28313642E+01 -0.41084443E-02  0.28264733E+01 -0.81515340E-01  0.75517619E-02 -0.36553386E-02  0.75517619E-02 -0.80168188E-02  0.67128116E-01 -0.81515340E-01 -0.80168188E-02  0.28264733E+01  0.75517619E-02 -0.36553386E-02  0.48973091E+01  0.34635822E-01 -0.74680145E-02 -0.15249220E-02  0.30937543E-03 -0.28346663E+01 -0.79968866E-02  0.28202591E+01 -0.28271983E+01 -0.52887215E-03  0.28277271E+01  0.19987571E+01  0.34632443E+01  0.39986361E+01 -0.64773345E-03 -0.19987571E+01  0.34632443E+01  0.19998790E+01 -0.34625966E+01 -0.19998790E+01 -0.34625966E+01 -0.39986361E+01 -0.64773345E-03  0.53233692E+06  0.16825319E-10  0.79640937E+00  0.20359063E+00
  0.31000000E+00  0.31000000E+00  0.10000000E+01  0.00000000E+00  0.00000000E+00  0.62000000E-01  0.10000000E+01  0.00000000E+00  0.00000000E+00  0.00000000E+00  0.10000000E+01 -0.10775616E+00  0.28653935E+01 -0.46249177E-02  0.28600999E+01 -0.85381901E-01  0.78817257E-02 -0.41362507E-02  0.78817257E-02 -0.86149651E-02  0.69570033E-01 -0.85381901E-01 -0.86149651E-02  0.28600999E+01  0.78817257E-02 -0.41362507E-02  0.49556795E+01  0.35789986E-01 -0.81422778E-02 -0.16430195E-02  0.25983301E-03 -0.28690804E+01 -0.85917522E-02  0.28532453E+01 -0.28609381E+01 -0.44947434E-03  0.28613876E+01  0.20226709E+01  0.35044698E+01  0.40462953E+01 -0.55049139E-03 -0.20226709E+01  0.35044698E+01  0.20236244E+01 -0.35039193E+01 -0.20236244E+01 -0.35039193E+01 -0.40462953E+01 -0.55049139E-03  0.54632005E+06  0.83164586E-11  0.79641294E+00  0.20358706E+00
  0.32000000E+00  0.32000000E+00  0.10000000E+01  0.00000000E+00  0.00000000E+00  0.64000000E-01  0.10000000E+01  0.00000000E+00  0.00000000E+00  0.00000000E+00  0.10000000E+01 -0.11276477E+00  0.28911775E+01 -0.52404001E-02  0.28855066E+01 -0.88607765E-01  0.79628161E-02 -0.47307798E-02  0.79628161E-02 -0.91833352E-02  0.71907655E-01 -0.88607765E-01 -0.91833352E-02  0.28855066E+01  0.79628161E-02 -0.47307798E-02  0.49998027E+01  0.36944114E-01 -0.86278150E-02 -0.17256311E-02  0.30312202E-03 -0.28950007E+01 -0.91568419E-02  0.28782741E+01 -0.28863729E+01 -0.52902685E-03  0.28869019E+01  0.20405997E+01  0.35357183E+01  0.40823217E+01 -0.64792292E-03 -0.20405997E+01  0.35357183E+01  0.20417220E+01 -0.35350704E+01 -0.20417220E+01 -0.35350704E+01 -0.40823217E+01 -0.64792292E-03  0.55719818E+06 -0.53019811E-11  0.79641551E+00  0.20358449E+00
  0.33000000E+00  0.33000000E+00  0.10000000E+01  0.00000000E+00  0.00000000E+00  0.66000000E-01  0.10000000E+01  0.00000000E+00  0.00000000E+00  0.00000000E+00  0.10000000E+01 -0.11768956E+00  0.29099915E+01 -0.58813879E-02  0.29039767E+01 -0.91132374E-01  0.78810523E-02 -0.53612385E-02  0.78810523E-02 -0.96654244E-02  0.73972904E-01 -0.91132374E-01 -0.96654244E-02  0.29039767E+01  0.78810523E-02 -0.53612385E-02  0.50318944E+01  0.38098205E-01 -0.89416315E-02 -0.17769911E-02  0.39532821E-03 -0.29137600E+01 -0.96360106E-02  0.28965711E+01 -0.29048183E+01 -0.69437916E-03  0.29055127E+01  0.20535257E+01  0.35585118E+01  0.41085245E+01 -0.85043732E-03 -0.20535257E+01  0.35585118E+01  0.20549987E+01 -0.35576614E+01 -0.20549987E+01 -0.35576614E+01 -0.41085245E+01 -0.85043732E-03  0.56530726E+06 -0.24204194E-10  0.79641718E+00  0.20358282E+00
  0.34000000E+00  0.34000000E+00  0.10000000E+01  0.00000000E+00  0.00000000E+00  0.68000000E-01  0.10000000E+01  0.00000000E+00  0.00000000E+00  0.00000000E+00  0.10000000E+01 -0.12295797E+00  0.29221384E+01 -0.62839755E-02  0.29158401E+01 -0.92622356E-01  0.76919130E-02 -0.57609254E-02  0.76919130E-02 -0.99807614E-02  0.75319155E-01 -0.92622356E-01 -0.99807614E-02  0.29158401E+01  0.76919130E-02 -0.57609254E-02  0.50525046E+01  0.39252258E-01 -0.90946543E-02 -0.18000289E-02  0.48505329E-03 -0.29257317E+01 -0.99501218E-02  0.29083979E+01 -0.29166371E+01 -0.85546752E-03  0.29174925E+01  0.20617689E+01  0.35731840E+01  0.41253526E+01 -0.10477295E-02 -0.20617689E+01  0.35731840E+01  0.20635837E+01 -0.35721363E+01 -0.20635837E+01 -0.35721363E+01 -0.41253526E+01 -0.10477295E-02  0.57059117E+06 -0.47529092E-10  0.79641800E+00  0.20358200E+00
  0.35000000E+00  0.35000000E+00  0.10000000E+01  0.00000000E+00  0.00000000E+00  0.70000000E-01  0.10000000E+01  0.00000000E+00  0.00000000E+00  0.00000000E+00  0.10000000E+01 -0.12858968E+00  0.29307417E+01 -0.65041362E-02  0.29242041E+01 -0.93394239E-01  0.75129946E-02 -0.59782266E-02  0.75129946E-02 -0.10192942E-01  0.76104604E-01 -0.93394239E-01 -0.10192942E-01  0.29242041E+01  0.75129946E-02 -0.59782266E-02  0.50670243E+01  0.40406272E-01 -0.91608590E-02 -0.18079366E-02  0.56603958E-03 -0.29341080E+01 -0.10162027E-01  0.29167875E+01 -0.29249472E+01 -0.10011684E-02  0.29259483E+01  0.20675420E+01  0.35835402E+01  0.41372079E+01 -0.12261759E-02 -0.20675420E+01  0.35835402E+01  0.20696658E+01 -0.35823140E+01 -0.20696658E+01 -0.35823140E+01 -0.41372079E+01 -0.12261759E-02  0.57434300E+06 -0.75079498E-10  0.79641836E+00  0.20358164E+00
  0.36000000E+00  0.36000000E+00  0.10000000E+01  0.00000000E+00  0.00000000E+00  0.72000000E-01  0.10000000E+01  0.00000000E+00  0.00000000E+00  0.00000000E+00  0.10000000E+01 -0.13442871E+00  0.29378051E+01 -0.66470386E-02  0.29310517E+01 -0.93796451E-01  0.73562000E-02 -0.61173922E-02  0.73562000E-02 -0.10359939E-01  0.76607011E-01 -0.93796451E-01 -0.10359939E-01  0.29310517E+01  0.73562000E-02 -0.61173922E-02  0.50789023E+01  0.41560246E-01 -0.91831264E-02 -0.18080928E-02  0.64637999E-03 -0.29409156E+01 -0.10329075E-01  0.29236953E+01 -0.29317325E+01 -0.11459485E-02  0.29328784E+01  0.20722376E+01  0.35920278E+01  0.41469061E+01 -0.14034946E-02 -0.20722376E+01  0.35920278E+01  0.20746685E+01 -0.35906243E+01 -0.20746685E+01 -0.35906243E+01 -0.41469061E+01 -0.14034946E-02  0.57743567E+06 -0.10715717E-09  0.79641848E+00  0.20358152E+00
  0.37000000E+00  0.37000000E+00  0.10000000E+01  0.00000000E+00  0.00000000E+00  0.74000000E-01  0.10000000E+01  0.00000000E+00  0.00000000E+00  0.00000000E+00  0.10000000E+01 -0.14042403E+00  0.29439897E+01 -0.67486693E-02  0.29370370E+01 -0.93956323E-01  0.72146384E-02 -0.62147860E-02  0.72146384E-02 -0.10495980E-01  0.76916701E-01 -0.93956323E-01 -0.10495980E-01  0.29370370E+01  0.72146384E-02 -0.62147860E-02  0.50892762E+01  0.42714178E-01 -0.91785338E-02 -0.18035048E-02  0.72434073E-03 -0.29468299E+01 -0.10465320E-01  0.29297596E+01 -0.29376514E+01 -0.12867859E-02  0.29389382E+01  0.20763233E+01  0.35994494E+01  0.41553763E+01 -0.15759844E-02 -0.20763233E+01  0.35994494E+01  0.20790530E+01 -0.35978735E+01 -0.20790530E+01 -0.35978735E+01 -0.41553763E+01 -0.15759844E-02  0.58015582E+06 -0.14490609E-09  0.79641846E+00  0.20358154E+00
  0.38000000E+00  0.38000000E+00  0.10000000E+01  0.00000000E+00  0.00000000E+00  0.76000000E-01  0.10000000E+01  0.00000000E+00  0.00000000E+00  0.00000000E+00  0.10000000E+01 -0.14655910E+00  0.29495905E+01 -0.68232479E-02  0.29424529E+01 -0.93916049E-01  0.70850909E-02 -0.62847810E-02  0.70850909E-02 -0.10617216E-01  0.77067320E-01 -0.93916049E-01 -0.10617216E-01  0.29424529E+01  0.70850909E-02 -0.62847810E-02  0.50986555E+01  0.43868067E-01 -0.91553149E-02 -0.17956332E-02  0.80433731E-03 -0.29521494E+01 -0.10586848E-01  0.29352703E+01 -0.29429941E+01 -0.14315326E-02  0.29444256E+01  0.20799988E+01  0.36061702E+01  0.41630344E+01 -0.17532622E-02 -0.20799988E+01  0.36061702E+01  0.20830356E+01 -0.36044169E+01 -0.20830356E+01 -0.36044169E+01 -0.41630344E+01 -0.17532622E-02  0.58263110E+06 -0.18895663E-09  0.79641833E+00  0.20358167E+00
  0.39000000E+00  0.39000000E+00  0.10000000E+01  0.00000000E+00  0.00000000E+00  0.78000000E-01  0.10000000E+01  0.00000000E+00  0.00000000E+00  0.00000000E+00  0.10000000E+01 -0.15282269E+00  0.29547522E+01 -0.68793702E-02  0.29474438E+01 -0.93696859E-01  0.69629439E-02 -0.63362605E-02  0.69629439E-02 -0.10732926E-01  0.77077931E-01 -0.93696859E-01 -0.10732926E-01  0.29474438E+01  0.69629439E-02 -0.63362605E-02  0.51072909E+01  0.45021913E-01 -0.91172845E-02 -0.17851508E-02  0.88940986E-03 -0.29570199E+01 -0.10702907E-01  0.29403710E+01 -0.29479026E+01 -0.15856228E-02  0.29494883E+01  0.20833607E+01  0.36123706E+01  0.41700851E+01 -0.19419834E-02 -0.20833607E+01  0.36123706E+01  0.20867244E+01 -0.36104286E+01 -0.20867244E+01 -0.36104286E+01 -0.41700851E+01 -0.19419834E-02  0.58492239E+06 -0.23990099E-09  0.79641812E+00  0.20358188E+00
  0.40000000E+00  0.40000000E+00  0.10000000E+01  0.00000000E+00  0.00000000E+00  0.80000000E-01  0.10000000E+01  0.00000000E+00  0.00000000E+00  0.00000000E+00  0.10000000E+01 -0.15919993E+00  0.29595818E+01 -0.69230182E-02  0.29521155E+01 -0.93328691E-01  0.68504047E-02 -0.63749858E-02  0.68504047E-02 -0.10846631E-01  0.76969306E-01 -0.93328691E-01 -0.10846631E-01  0.29521155E+01  0.68504047E-02 -0.63749858E-02  0.51153669E+01  0.46175714E-01 -0.90686718E-02 -0.17728292E-02  0.97911590E-03 -0.29615526E+01 -0.10816981E-01  0.29451635E+01 -0.29524839E+01 -0.17483092E-02  0.29542322E+01  0.20864851E+01  0.36181807E+01  0.41766790E+01 -0.21412327E-02 -0.20864851E+01  0.36181807E+01  0.20901939E+01 -0.36160395E+01 -0.20901939E+01 -0.36160395E+01 -0.41766790E+01 -0.21412327E-02  0.58707591E+06 -0.29839065E-09  0.79641784E+00  0.20358216E+00
  0.41000000E+00  0.41000000E+00  0.10000000E+01  0.00000000E+00  0.00000000E+00  0.82000000E-01  0.10000000E+01  0.00000000E+00  0.00000000E+00  0.00000000E+00  0.10000000E+01 -0.16567926E+00  0.29641379E+01 -0.69558880E-02  0.29565254E+01 -0.92835220E-01  0.67462831E-02 -0.64026928E-02  0.67462831E-02 -0.10960962E-01  0.76755822E-01 -0.92835220E-01 -0.10960962E-01  0.29565254E+01  0.67462831E-02 -0.64026928E-02  0.51229841E+01  0.47329468E-01 -0.90134535E-02 -0.17594147E-02  0.10726863E-02 -0.29658101E+01 -0.10931694E-01  0.29497015E+01 -0.29567967E+01 -0.19182406E-02  0.29587149E+01  0.20894146E+01  0.36236709E+01  0.41828984E+01 -0.23493553E-02 -0.20894146E+01  0.36236709E+01  0.20934838E+01 -0.36213216E+01 -0.20934838E+01 -0.36213216E+01 -0.41828984E+01 -0.23493553E-02  0.58911578E+06 -0.36541103E-09  0.79641753E+00  0.20358247E+00
  0.42000000E+00  0.42000000E+00  0.10000000E+01  0.00000000E+00  0.00000000E+00  0.84000000E-01  0.10000000E+01  0.00000000E+00  0.00000000E+00  0.00000000E+00  0.10000000E+01 -0.17223653E+00  0.29684546E+01 -0.69807337E-02  0.29607052E+01 -0.92254093E-01  0.66472125E-02 -0.64223679E-02  0.66472125E-02 -0.11074737E-01  0.76462713E-01 -0.92254093E-01 -0.11074737E-01  0.29607052E+01  0.66472125E-02 -0.64223679E-02  0.51301990E+01  0.48483176E-01 -0.89553722E-02 -0.17456189E-02  0.11673650E-02 -0.29698313E+01 -0.11045863E-01  0.29540111E+01 -0.29608760E+01 -0.20904907E-02  0.29629665E+01  0.20921773E+01  0.36288780E+01  0.41887892E+01 -0.25603177E-02 -0.20921773E+01  0.36288780E+01  0.20966119E+01 -0.36263177E+01 -0.20966119E+01 -0.36263177E+01 -0.41887892E+01 -0.25603177E-02  0.59105472E+06 -0.44175552E-09  0.79641720E+00  0.20358280E+00
  0.43000000E+00  0.43000000E+00  0.10000000E+01  0.00000000E+00  0.00000000E+00  0.86000000E-01  0.10000000E+01  0.00000000E+00  0.00000000E+00  0.00000000E+00  0.10000000E+01 -0.17883591E+00  0.29725444E+01 -0.70086615E-02  0.29646635E+01 -0.91638425E-01  0.65515588E-02 -0.64452275E-02  0.65515588E-02 -0.11184016E-01  0.76125157E-01 -0.91638425E-01 -0.11184016E-01  0.29646635E+01  0.65515588E-02 -0.64452275E-02  0.51370286E+01  0.49636835E-01 -0.88990944E-02 -0.17323428E-02  0.12583431E-02 -0.29736351E+01 -0.11155506E-01  0.29580933E+01 -0.29647360E+01 -0.22564120E-02  0.29669924E+01  0.20947894E+01  0.36338088E+01  0.41943654E+01 -0.27635291E-02 -0.20947894E+01  0.36338088E+01  0.20995760E+01 -0.36310452E+01 -0.20995760E+01 -0.36310452E+01 -0.41943654E+01 -0.27635291E-02  0.59289458E+06 -0.52827476E-09  0.79641688E+00  0.20358312E+00
  0.44000000E+00  0.44000000E+00  0.10000000E+01  0.00000000E+00  0.00000000E+00  0.88000000E-01  0.10000000E+01  0.00000000E+00  0.00000000E+00  0.00000000E+00  0.10000000E+01 -0.18546050E+00  0.29764245E+01 -0.70486935E-02  0.29684151E+01 -0.91016457E-01  0.64584514E-02 -0.64803498E-02  0.64584514E-02 -0.11286478E-01  0.75760022E-01 -0.91016457E-01 -0.11286478E-01  0.29684151E+01  0.64584514E-02 -0.64803498E-02  0.51434997E+01  0.50790444E-01 -0.88476375E-02 -0.17201590E-02  0.13426565E-02 -0.29772425E+01 -0.11258270E-01  0.29619579E+01 -0.29683949E+01 -0.24106322E-02  0.29708055E+01  0.20972676E+01  0.36384789E+01  0.41996489E+01 -0.29524095E-02 -0.20972676E+01  0.36384789E+01  0.21023813E+01 -0.36355264E+01 -0.21023813E+01 -0.36355264E+01 -0.41996489E+01 -0.29524095E-02  0.59464061E+06 -0.62608607E-09  0.79641657E+00  0.20358343E+00
  0.45000000E+00  0.45000000E+00  0.10000000E+01  0.00000000E+00  0.00000000E+00  0.90000000E-01  0.10000000E+01  0.00000000E+00  0.00000000E+00  0.00000000E+00  0.10000000E+01 -0.19211278E+00  0.29801238E+01 -0.70929978E-02  0.29719886E+01 -0.90390744E-01  0.63656632E-02 -0.65200881E-02  0.63656632E-02 -0.11383971E-01  0.75366191E-01 -0.90390744E-01 -0.11383971E-01  0.29719886E+01  0.63656632E-02 -0.65200881E-02  0.51496621E+01  0.51944003E-01 -0.88028412E-02 -0.17094017E-02  0.14203630E-02 -0.29806842E+01 -0.11356045E-01  0.29656317E+01 -0.29718814E+01 -0.25532033E-02  0.29744346E+01  0.20996321E+01  0.36429235E+01  0.42046803E+01 -0.31270226E-02 -0.20996321E+01  0.36429235E+01  0.21050482E+01 -0.36397965E+01 -0.21050482E+01 -0.36397965E+01 -0.42046803E+01 -0.31270226E-02  0.59630576E+06 -0.73656770E-09  0.79641631E+00  0.20358369E+00
  0.46000000E+00  0.46000000E+00  0.10000000E+01  0.00000000E+00  0.00000000E+00  0.92000000E-01  0.10000000E+01  0.00000000E+00  0.00000000E+00  0.00000000E+00  0.10000000E+01 -0.19879148E+00  0.29836731E+01 -0.71328445E-02  0.29754149E+01 -0.89762697E-01  0.62735158E-02 -0.65556810E-02  0.62735158E-02 -0.11480961E-01  0.74946689E-01 -0.89762697E-01 -0.11480961E-01  0.29754149E+01  0.62735158E-02 -0.65556810E-02  0.51555690E+01  0.53097510E-01 -0.87656563E-02 -0.17002306E-02  0.14934584E-02 -0.29839901E+01 -0.11453333E-01  0.29691464E+01 -0.29752244E+01 -0.26876768E-02  0.29779121E+01  0.21019009E+01  0.36471826E+01  0.42095032E+01 -0.32917184E-02 -0.21019009E+01  0.36471826E+01  0.21076023E+01 -0.36438908E+01 -0.21076023E+01 -0.36438908E+01 -0.42095032E+01 -0.32917184E-02  0.59790472E+06 -0.86077123E-09  0.79641607E+00  0.20358393E+00
  0.47000000E+00  0.47000000E+00  0.10000000E+01  0.00000000E+00  0.00000000E+00  0.94000000E-01  0.10000000E+01  0.00000000E+00  0.00000000E+00  0.00000000E+00  0.10000000E+01 -0.20549349E+00  0.29870945E+01 -0.71704942E-02  0.29787157E+01 -0.89135750E-01  0.61802349E-02 -0.65895521E-02  0.61802349E-02 -0.11577459E-01  0.74505789E-01 -0.89135750E-01 -0.11577459E-01  0.29787157E+01  0.61802349E-02 -0.65895521E-02  0.51612584E+01  0.54250964E-01 -0.87358068E-02 -0.16925730E-02  0.15621160E-02 -0.29871816E+01 -0.11550145E-01  0.29725243E+01 -0.29784458E+01 -0.28143377E-02  0.29812601E+01  0.21040892E+01  0.36512830E+01  0.42141484E+01 -0.34468457E-02 -0.21040892E+01  0.36512830E+01  0.21100593E+01 -0.36478362E+01 -0.21100593E+01 -0.36478362E+01 -0.42141484E+01 -0.34468457E-02  0.59944789E+06 -0.10002830E-08  0.79641588E+00  0.20358412E+00
  0.48000000E+00  0.48000000E+00  0.10000000E+01  0.00000000E+00  0.00000000E+00  0.96000000E-01  0.10000000E+01  0.00000000E+00  0.00000000E+00  0.00000000E+00  0.10000000E+01 -0.21221271E+00  0.29904037E+01 -0.72045029E-02  0.29819060E+01 -0.88517464E-01  0.60839864E-02 -0.66204402E-02  0.60839864E-02 -0.11673697E-01  0.74050271E-01 -0.88517464E-01 -0.11673697E-01  0.29819060E+01  0.60839864E-02 -0.66204402E-02  0.51667566E+01  0.55404364E-01 -0.87136300E-02 -0.16864797E-02  0.16262996E-02 -0.29902743E+01 -0.11646723E-01  0.29757802E+01 -0.29815607E+01 -0.29330933E-02  0.29844938E+01  0.21062078E+01  0.36552435E+01  0.42186376E+01 -0.35922910E-02 -0.21062078E+01  0.36552435E+01  0.21124298E+01 -0.36516512E+01 -0.21124298E+01 -0.36516512E+01 -0.42186376E+01 -0.35922910E-02  0.60094255E+06 -0.11568417E-08  0.79641572E+00  0.20358428E+00
  0.49000000E+00  0.49000000E+00  0.10000000E+01  0.00000000E+00  0.00000000E+00  0.98000000E-01  0.10000000E+01  0.00000000E+00  0.00000000E+00  0.00000000E+00  0.10000000E+01 -0.21894220E+00  0.29936147E+01 -0.72352376E-02  0.29849990E+01 -0.87914687E-01  0.59858088E-02 -0.66486284E-02  0.59858088E-02 -0.11770651E-01  0.73587709E-01 -0.87914687E-01 -0.11770651E-01  0.29849990E+01  0.59858088E-02 -0.66486284E-02  0.51720868E+01  0.56557709E-01 -0.86992095E-02 -0.16819535E-02  0.16865143E-02 -0.29932813E+01 -0.11744040E-01  0.29789277E+01 -0.29845821E+01 -0.30448306E-02  0.29876269E+01  0.21082652E+01  0.36590808E+01  0.42229895E+01 -0.37291407E-02 -0.21082652E+01  0.36590808E+01  0.21147243E+01 -0.36553516E+01 -0.21147243E+01 -0.36553516E+01 -0.42229895E+01 -0.37291407E-02  0.60239492E+06 -0.13325046E-08  0.79641560E+00  0.20358440E+00
  0.50000000E+00  0.50000000E+00  0.10000000E+01  0.00000000E+00  0.00000000E+00  0.10000000E+00  0.10000000E+01  0.00000000E+00  0.00000000E+00  0.00000000E+00  0.10000000E+01 -0.22568231E+00  0.29967389E+01 -0.72640410E-02  0.29880062E+01 -0.87327096E-01  0.58877451E-02 -0.66752665E-02  0.58877451E-02 -0.11866742E-01  0.73118307E-01 -0.87327096E-01 -0.11866742E-01  0.29880062E+01  0.58877451E-02 -0.66752665E-02  0.51772686E+01  0.57710998E-01 -0.86918435E-02 -0.16788473E-02  0.17422778E-02 -0.29962137E+01 -0.11840501E-01  0.29819787E+01 -0.29875219E+01 -0.31486573E-02  0.29906705E+01  0.21102705E+01  0.36628084E+01  0.42272204E+01 -0.38563019E-02 -0.21102705E+01  0.36628084E+01  0.21169498E+01 -0.36589521E+01 -0.21169498E+01 -0.36589521E+01 -0.42272204E+01 -0.38563019E-02  0.60381049E+06 -0.15297945E-08  0.79641552E+00  0.20358448E+00
  0.51000000E+00  0.51000000E+00  0.10000000E+01  0.00000000E+00  0.00000000E+00  0.10200000E+00  0.10000000E+01  0.00000000E+00  0.00000000E+00  0.00000000E+00  0.10000000E+01 -0.23242802E+00  0.29997838E+01 -0.72914470E-02  0.29909342E+01 -0.86760711E-01  0.57903374E-02 -0.67008326E-02  0.57903374E-02 -0.11960936E-01  0.72647263E-01 -0.86760711E-01 -0.11960936E-01  0.29909342E+01  0.57903374E-02 -0.67008326E-02  0.51823141E+01  0.58864229E-01 -0.86914617E-02 -0.16771391E-02  0.17930696E-02 -0.29990788E+01 -0.11935068E-01  0.29849394E+01 -0.29903873E+01 -0.32436065E-02  0.29936309E+01  0.21122296E+01  0.36664341E+01  0.42313399E+01 -0.39725905E-02 -0.21122296E+01  0.36664341E+01  0.21191103E+01 -0.36624615E+01 -0.21191103E+01 -0.36624615E+01 -0.42313399E+01 -0.39725905E-02  0.60519255E+06 -0.17513224E-08  0.79641547E+00  0.20358453E+00
  0.52000000E+00  0.52000000E+00  0.10000000E+01  0.00000000E+00  0.00000000E+00  0.10400000E+00  0.10000000E+01  0.00000000E+00  0.00000000E+00  0.00000000E+00  0.10000000E+01 -0.23917117E+00  0.30027561E+01 -0.73177182E-02  0.29937888E+01 -0.86223649E-01  0.56922930E-02 -0.67257198E-02  0.56922930E-02 -0.12053295E-01  0.72182865E-01 -0.86223649E-01 -0.12053295E-01  0.29937888E+01  0.56922930E-02 -0.67257198E-02  0.51872336E+01  0.60017401E-01 -0.86980266E-02 -0.16768141E-02  0.18389610E-02 -0.30018825E+01 -0.12027807E-01  0.29878162E+01 -0.29931844E+01 -0.33297805E-02  0.29965142E+01  0.21141465E+01  0.36699654E+01  0.42353565E+01 -0.40781316E-02 -0.21141465E+01  0.36699654E+01  0.21212100E+01 -0.36658873E+01 -0.21212100E+01 -0.36658873E+01 -0.42353565E+01 -0.40781316E-02  0.60654395E+06 -0.20002959E-08  0.79641545E+00  0.20358455E+00
  0.53000000E+00  0.53000000E+00  0.10000000E+01  0.00000000E+00  0.00000000E+00  0.10600000E+00  0.10000000E+01  0.00000000E+00  0.00000000E+00  0.00000000E+00  0.10000000E+01 -0.24590502E+00  0.30056600E+01 -0.73428938E-02  0.29965733E+01 -0.85723844E-01  0.55924066E-02 -0.67500987E-02  0.55924066E-02 -0.12143287E-01  0.71731743E-01 -0.85723844E-01 -0.12143287E-01  0.29965733E+01  0.55924066E-02 -0.67500987E-02  0.51920329E+01  0.61170513E-01 -0.87117957E-02 -0.16779161E-02  0.18795342E-02 -0.30046287E+01 -0.12118190E-01  0.29906115E+01 -0.29959169E+01 -0.34063946E-02  0.29993233E+01  0.21160245E+01  0.36734058E+01  0.42392750E+01 -0.41719644E-02 -0.21160245E+01  0.36734058E+01  0.21232505E+01 -0.36692339E+01 -0.21232505E+01 -0.36692339E+01 -0.42392750E+01 -0.41719644E-02  0.60786592E+06 -0.22798750E-08  0.79641548E+00  0.20358453E+00
  0.54000000E+00  0.54000000E+00  0.10000000E+01  0.00000000E+00  0.00000000E+00  0.10800000E+00  0.10000000E+01  0.00000000E+00  0.00000000E+00  0.00000000E+00  0.10000000E+01 -0.25262614E+00  0.30084999E+01 -0.73674920E-02  0.29992912E+01 -0.85265741E-01  0.54916975E-02 -0.67743886E-02  0.54916975E-02 -0.12230434E-01  0.71297316E-01 -0.85265741E-01 -0.12230434E-01  0.29992912E+01  0.54916975E-02 -0.67743886E-02  0.51967185E+01  0.62323565E-01 -0.87329528E-02 -0.16804745E-02  0.19144372E-02 -0.30073219E+01 -0.12205735E-01  0.29933288E+01 -0.29985889E+01 -0.34727826E-02  0.30020617E+01  0.21178669E+01  0.36767597E+01  0.42431008E+01 -0.42532727E-02 -0.21178669E+01  0.36767597E+01  0.21252338E+01 -0.36725064E+01 -0.21252338E+01 -0.36725064E+01 -0.42431008E+01 -0.42532727E-02  0.60916015E+06 -0.25933007E-08  0.79641553E+00  0.20358447E+00
  0.55000000E+00  0.55000000E+00  0.10000000E+01  0.00000000E+00  0.00000000E+00  0.11000000E+00  0.10000000E+01  0.00000000E+00  0.00000000E+00  0.00000000E+00  0.10000000E+01 -0.25933304E+00  0.30112813E+01 -0.73935542E-02  0.30019477E+01 -0.84850222E-01  0.53901727E-02 -0.68006352E-02  0.53901727E-02 -0.12314994E-01  0.70881214E-01 -0.84850222E-01 -0.12314994E-01  0.30019477E+01  0.53901727E-02 -0.68006352E-02  0.52012993E+01  0.63476554E-01 -0.87613338E-02 -0.16844510E-02  0.19439121E-02 -0.30099666E+01 -0.12290692E-01  0.29959733E+01 -0.30012053E+01 -0.35293584E-02  0.30047347E+01  0.21196770E+01  0.36800334E+01  0.42468409E+01 -0.43225636E-02 -0.21196770E+01  0.36800334E+01  0.21271639E+01 -0.36757108E+01 -0.21271639E+01 -0.36757108E+01 -0.42468409E+01 -0.43225636E-02  0.61042897E+06 -0.29444558E-08  0.79641563E+00  0.20358438E+00
  0.56000000E+00  0.56000000E+00  0.10000000E+01  0.00000000E+00  0.00000000E+00  0.11200000E+00  0.10000000E+01  0.00000000E+00  0.00000000E+00  0.00000000E+00  0.10000000E+01 -0.26602071E+00  0.30140068E+01 -0.74226050E-02  0.30045449E+01 -0.84481213E-01  0.52879120E-02 -0.68303589E-02  0.52879120E-02 -0.12397089E-01  0.70488319E-01 -0.84481213E-01 -0.12397089E-01  0.30045449E+01  0.52879120E-02 -0.68303589E-02  0.52057791E+01  0.64629480E-01 -0.87966608E-02 -0.16897876E-02  0.19681913E-02 -0.30125647E+01 -0.12373178E-01  0.29985479E+01 -0.30037681E+01 -0.35765172E-02  0.30073446E+01  0.21214558E+01  0.36832299E+01  0.42504985E+01 -0.43803211E-02 -0.21214558E+01  0.36832299E+01  0.21290427E+01 -0.36788496E+01 -0.21290427E+01 -0.36788496E+01 -0.42504985E+01 -0.43803211E-02  0.61167322E+06 -0.33376071E-08  0.79641576E+00  0.20358425E+00
  0.57000000E+00  0.57000000E+00  0.10000000E+01  0.00000000E+00  0.00000000E+00  0.11400000E+00  0.10000000E+01  0.00000000E+00  0.00000000E+00  0.00000000E+00  0.10000000E+01 -0.27268489E+00  0.30166795E+01 -0.74553317E-02  0.30070849E+01 -0.84163114E-01  0.51855384E-02 -0.68641803E-02  0.51855384E-02 -0.12476493E-01  0.70122785E-01 -0.84163114E-01 -0.12476493E-01  0.30070849E+01  0.51855384E-02 -0.68641803E-02  0.52101615E+01  0.65782342E-01 -0.88389407E-02 -0.16964811E-02  0.19871577E-02 -0.30151185E+01 -0.12452963E-01  0.30010546E+01 -0.30062795E+01 -0.36140221E-02  0.30098935E+01  0.21232051E+01  0.36863517E+01  0.42540768E+01 -0.44262550E-02 -0.21232051E+01  0.36863517E+01  0.21308716E+01 -0.36819254E+01 -0.21308716E+01 -0.36819254E+01 -0.42540768E+01 -0.44262550E-02  0.61289380E+06 -0.37769627E-08  0.79641592E+00  0.20358409E+00
  0.58000000E+00  0.58000000E+00  0.10000000E+01  0.00000000E+00  0.00000000E+00  0.11600000E+00  0.10000000E+01  0.00000000E+00  0.00000000E+00  0.00000000E+00  0.10000000E+01 -0.27932352E+00  0.30193027E+01 -0.74921068E-02  0.30095707E+01 -0.83896959E-01  0.50824074E-02 -0.69025475E-02  0.50824074E-02 -0.12553975E-01  0.69786676E-01 -0.83896959E-01 -0.12553975E-01  0.30095707E+01  0.50824074E-02 -0.69025475E-02  0.52144522E+01  0.66935139E-01 -0.88880864E-02 -0.17045101E-02  0.20012953E-02 -0.30176304E+01 -0.12530818E-01  0.30034970E+01 -0.30087423E+01 -0.36427313E-02  0.30123851E+01  0.21249263E+01  0.36894032E+01  0.42575800E+01 -0.44614165E-02 -0.21249263E+01  0.36894032E+01  0.21326537E+01 -0.36849418E+01 -0.21326537E+01 -0.36849418E+01 -0.42575800E+01 -0.44614165E-02  0.61409224E+06 -0.42667905E-08  0.79641612E+00  0.20358389E+00
  0.59000000E+00  0.59000000E+00  0.10000000E+01  0.00000000E+00  0.00000000E+00  0.11800000E+00  0.10000000E+01  0.00000000E+00  0.00000000E+00  0.00000000E+00  0.10000000E+01 -0.28593240E+00  0.30218785E+01 -0.75336631E-02  0.30120035E+01 -0.83686267E-01  0.49784163E-02 -0.69462099E-02  0.49784163E-02 -0.12629092E-01  0.69484019E-01 -0.83686267E-01 -0.12629092E-01  0.30120035E+01  0.49784163E-02 -0.69462099E-02  0.52186532E+01  0.68087868E-01 -0.89437800E-02 -0.17138100E-02  0.20105462E-02 -0.30201017E+01 -0.12606298E-01  0.30058766E+01 -0.30111579E+01 -0.36625181E-02  0.30148204E+01  0.21266204E+01  0.36923858E+01  0.42610101E+01 -0.44856503E-02 -0.21266204E+01  0.36923858E+01  0.21343897E+01 -0.36879002E+01 -0.21343897E+01 -0.36879002E+01 -0.42610101E+01 -0.44856503E-02  0.61526889E+06 -0.48102402E-08  0.79641635E+00  0.20358366E+00
  0.60000000E+00  0.60000000E+00  0.10000000E+01  0.00000000E+00  0.00000000E+00  0.12000000E+00  0.10000000E+01  0.00000000E+00  0.00000000E+00  0.00000000E+00  0.10000000E+01 -0.29250965E+00  0.30244092E+01 -0.75818557E-02  0.30143853E+01 -0.83532537E-01  0.48739665E-02 -0.69969797E-02  0.48739665E-02 -0.12701749E-01  0.69216582E-01 -0.83532537E-01 -0.12701749E-01  0.30143853E+01  0.48739665E-02 -0.69969797E-02  0.52227678E+01  0.69240530E-01 -0.90059012E-02 -0.17243541E-02  0.20149327E-02 -0.30225339E+01 -0.12679304E-01  0.30081955E+01 -0.30135280E+01 -0.36734027E-02  0.30172014E+01  0.21282886E+01  0.36953020E+01  0.42643697E+01 -0.44989811E-02 -0.21282886E+01  0.36953020E+01  0.21360811E+01 -0.36908030E+01 -0.21360811E+01 -0.36908030E+01 -0.42643697E+01 -0.44989811E-02  0.61642454E+06 -0.54104183E-08  0.79641661E+00  0.20358340E+00
  0.61000000E+00  0.61000000E+00  0.10000000E+01  0.00000000E+00  0.00000000E+00  0.12200000E+00  0.10000000E+01  0.00000000E+00  0.00000000E+00  0.00000000E+00  0.10000000E+01 -0.29905415E+00  0.30268973E+01 -0.76365332E-02  0.30167180E+01 -0.83436460E-01  0.47685449E-02 -0.70547707E-02  0.47685449E-02 -0.12771908E-01  0.68985451E-01 -0.83436460E-01 -0.12771908E-01  0.30167180E+01  0.47685449E-02 -0.70547707E-02  0.52267997E+01  0.70393123E-01 -0.90743056E-02 -0.17361112E-02  0.20145257E-02 -0.30249291E+01 -0.12749802E-01  0.30104560E+01 -0.30158548E+01 -0.36754960E-02  0.30195303E+01  0.21299324E+01  0.36981543E+01  0.42676617E+01 -0.45015449E-02 -0.21299324E+01  0.36981543E+01  0.21377293E+01 -0.36936527E+01 -0.21377293E+01 -0.36936527E+01 -0.42676617E+01 -0.45015449E-02  0.61756010E+06 -0.60714545E-08  0.79641690E+00  0.20358310E+00
  0.62000000E+00  0.62000000E+00  0.10000000E+01  0.00000000E+00  0.00000000E+00  0.12400000E+00  0.10000000E+01  0.00000000E+00  0.00000000E+00  0.00000000E+00  0.10000000E+01 -0.30556413E+00  0.30293443E+01 -0.76988844E-02  0.30190026E+01 -0.83400263E-01  0.46623611E-02 -0.71207516E-02  0.46623611E-02 -0.12839685E-01  0.68792199E-01 -0.83400263E-01 -0.12839685E-01  0.30190026E+01  0.46623611E-02 -0.71207516E-02  0.52307505E+01  0.71545646E-01 -0.91492496E-02 -0.17491275E-02  0.20092565E-02 -0.30272885E+01 -0.12817903E-01  0.30126586E+01 -0.30181392E+01 -0.36686533E-02  0.30218079E+01  0.21315526E+01  0.37009437E+01  0.42708875E+01 -0.44931644E-02 -0.21315526E+01  0.37009437E+01  0.21393350E+01 -0.36964505E+01 -0.21393350E+01 -0.36964505E+01 -0.42708875E+01 -0.44931644E-02  0.61867580E+06 -0.67945696E-08  0.79641723E+00  0.20358278E+00
  0.63000000E+00  0.63000000E+00  0.10000000E+01  0.00000000E+00  0.00000000E+00  0.12600000E+00  0.10000000E+01  0.00000000E+00  0.00000000E+00  0.00000000E+00  0.10000000E+01 -0.31203736E+00  0.30317519E+01 -0.77712431E-02  0.30212404E+01 -0.83425092E-01  0.45567245E-02 -0.71970958E-02  0.45567245E-02 -0.12904525E-01  0.68638928E-01 -0.83425092E-01 -0.12904525E-01  0.30212404E+01  0.45567245E-02 -0.71970958E-02  0.52346223E+01  0.72698098E-01 -0.92302296E-02 -0.17633038E-02  0.19991017E-02 -0.30296128E+01 -0.12883043E-01  0.30148051E+01 -0.30203826E+01 -0.36528138E-02  0.30240354E+01  0.21331501E+01  0.37036718E+01  0.42740489E+01 -0.44737649E-02 -0.21331501E+01  0.37036718E+01  0.21408988E+01 -0.36991980E+01 -0.21408988E+01 -0.36991980E+01 -0.42740489E+01 -0.44737649E-02  0.61977215E+06 -0.75807884E-08  0.79641759E+00  0.20358242E+00
  0.64000000E+00  0.64000000E+00  0.10000000E+01  0.00000000E+00  0.00000000E+00  0.12800000E+00  0.10000000E+01  0.00000000E+00  0.00000000E+00  0.00000000E+00  0.10000000E+01 -0.31847170E+00  0.30341221E+01 -0.78528338E-02  0.30234326E+01 -0.83511937E-01  0.44509347E-02 -0.72831142E-02  0.44509347E-02 -0.12966759E-01  0.68527669E-01 -0.83511937E-01 -0.12966759E-01  0.30234326E+01  0.44509347E-02 -0.72831142E-02  0.52384176E+01  0.73850478E-01 -0.93170093E-02 -0.17785923E-02  0.19843854E-02 -0.30319029E+01 -0.12945562E-01  0.30168974E+01 -0.30225859E+01 -0.36285526E-02  0.30262145E+01  0.21347252E+01  0.37063406E+01  0.42771478E+01 -0.44440512E-02 -0.21347252E+01  0.37063406E+01  0.21424225E+01 -0.37018966E+01 -0.21424225E+01 -0.37018966E+01 -0.42771478E+01 -0.44440512E-02  0.62084963E+06 -0.84333145E-08  0.79641798E+00  0.20358203E+00
  0.65000000E+00  0.65000000E+00  0.10000000E+01  0.00000000E+00  0.00000000E+00  0.13000000E+00  0.10000000E+01  0.00000000E+00  0.00000000E+00  0.00000000E+00  0.10000000E+01 -0.32486664E+00  0.30364565E+01 -0.79419906E-02  0.30255804E+01 -0.83661581E-01  0.43435453E-02 -0.73773297E-02  0.43435453E-02 -0.13026935E-01  0.68458815E-01 -0.83661581E-01 -0.13026935E-01  0.30255804E+01  0.43435453E-02 -0.73773297E-02  0.52421385E+01  0.75002784E-01 -0.94099007E-02 -0.17950500E-02  0.19652517E-02 -0.30341603E+01 -0.13006019E-01  0.30189366E+01 -0.30247504E+01 -0.35961181E-02  0.30283465E+01  0.21362787E+01  0.37089519E+01  0.42801859E+01 -0.44043272E-02 -0.21362787E+01  0.37089519E+01  0.21439072E+01 -0.37045475E+01 -0.21439072E+01 -0.37045475E+01 -0.42801859E+01 -0.44043272E-02  0.62190880E+06 -0.93543195E-08  0.79641839E+00  0.20358161E+00
  0.66000000E+00  0.66000000E+00  0.10000000E+01  0.00000000E+00  0.00000000E+00  0.13200000E+00  0.10000000E+01  0.00000000E+00  0.00000000E+00  0.00000000E+00  0.10000000E+01 -0.33122060E+00  0.30387566E+01 -0.80396115E-02  0.30276851E+01 -0.83875082E-01  0.42357421E-02 -0.74804935E-02  0.42357421E-02 -0.13085117E-01  0.68433834E-01 -0.83875082E-01 -0.13085117E-01  0.30276851E+01  0.42357421E-02 -0.74804935E-02  0.52457869E+01  0.76155015E-01 -0.95087883E-02 -0.18126524E-02  0.19418034E-02 -0.30363858E+01 -0.13064473E-01  0.30209240E+01 -0.30268771E+01 -0.35556843E-02  0.30304327E+01  0.21378110E+01  0.37115070E+01  0.42831648E+01 -0.43548062E-02 -0.21378110E+01  0.37115070E+01  0.21453538E+01 -0.37071522E+01 -0.21453538E+01 -0.37071522E+01 -0.42831648E+01 -0.43548062E-02  0.62294999E+06 -0.10342353E-07  0.79641884E+00  0.20358117E+00
  0.67000000E+00  0.67000000E+00  0.10000000E+01  0.00000000E+00  0.00000000E+00  0.13400000E+00  0.10000000E+01  0.00000000E+00  0.00000000E+00  0.00000000E+00  0.10000000E+01 -0.33753251E+00  0.30410239E+01 -0.81452445E-02  0.30297474E+01 -0.84152803E-01  0.41274084E-02 -0.75921718E-02  0.41274084E-02 -0.13141666E-01  0.68453641E-01 -0.84152803E-01 -0.13141666E-01  0.30297474E+01  0.41274084E-02 -0.75921718E-02  0.52493644E+01  0.77307171E-01 -0.96136092E-02 -0.18313854E-02  0.19142817E-02 -0.30385802E+01 -0.13121288E-01  0.30228606E+01 -0.30289666E+01 -0.35076791E-02  0.30324742E+01  0.21393225E+01  0.37140073E+01  0.42860859E+01 -0.42960120E-02 -0.21393225E+01  0.37140073E+01  0.21467634E+01 -0.37097113E+01 -0.21467634E+01 -0.37097113E+01 -0.42860859E+01 -0.42960120E-02  0.62397362E+06 -0.11394923E-07  0.79641932E+00  0.20358069E+00
  0.68000000E+00  0.68000000E+00  0.10000000E+01  0.00000000E+00  0.00000000E+00  0.13600000E+00  0.10000000E+01  0.00000000E+00  0.00000000E+00  0.00000000E+00  0.10000000E+01 -0.34380019E+00  0.30432593E+01 -0.82593798E-02  0.30317679E+01 -0.84495690E-01  0.40184957E-02 -0.77128644E-02  0.40184957E-02 -0.13196432E-01  0.68520241E-01 -0.84495690E-01 -0.13196432E-01  0.30317679E+01  0.40184957E-02 -0.77128644E-02  0.52528720E+01  0.78459250E-01 -0.97239603E-02 -0.18511702E-02  0.18828315E-02 -0.30407434E+01 -0.13176316E-01  0.30247478E+01 -0.30310194E+01 -0.34523559E-02  0.30344718E+01  0.21408132E+01  0.37164537E+01  0.42889499E+01 -0.42282552E-02 -0.21408132E+01  0.37164537E+01  0.21481367E+01 -0.37122255E+01 -0.21481367E+01 -0.37122255E+01 -0.42889499E+01 -0.42282552E-02  0.62497988E+06 -0.12506784E-07  0.79641983E+00  0.20358018E+00
  0.69000000E+00  0.69000000E+00  0.10000000E+01  0.00000000E+00  0.00000000E+00  0.13800000E+00  0.10000000E+01  0.00000000E+00  0.00000000E+00  0.00000000E+00  0.10000000E+01 -0.35002330E+00  0.30454643E+01 -0.83813756E-02  0.30337474E+01 -0.84904650E-01  0.39086215E-02 -0.78419858E-02  0.39086215E-02 -0.13249124E-01  0.68633844E-01 -0.84904650E-01 -0.13249124E-01  0.30337474E+01  0.39086215E-02 -0.78419858E-02  0.52563112E+01  0.79611251E-01 -0.98399765E-02 -0.18720308E-02  0.18472306E-02 -0.30428766E+01 -0.13229272E-01  0.30265860E+01 -0.30330366E+01 -0.33892958E-02  0.30364259E+01  0.21422842E+01  0.37188471E+01  0.42917581E+01 -0.41510227E-02 -0.21422842E+01  0.37188471E+01  0.21494740E+01 -0.37146961E+01 -0.21494740E+01 -0.37146961E+01 -0.42917581E+01 -0.41510227E-02  0.62596910E+06 -0.13677950E-07  0.79642037E+00  0.20357965E+00
  0.70000000E+00  0.70000000E+00  0.10000000E+01  0.00000000E+00  0.00000000E+00  0.14000000E+00  0.10000000E+01  0.00000000E+00  0.00000000E+00  0.00000000E+00  0.10000000E+01 -0.35619981E+00  0.30476398E+01 -0.85120800E-02  0.30356863E+01 -0.85381916E-01  0.37986923E-02 -0.79802630E-02  0.37986923E-02 -0.13299668E-01  0.68796279E-01 -0.85381916E-01 -0.13299668E-01  0.30356863E+01  0.37986923E-02 -0.79802630E-02  0.52596827E+01  0.80763172E-01 -0.99617682E-02 -0.18939865E-02  0.18073829E-02 -0.30449805E+01 -0.13280079E-01  0.30283752E+01 -0.30350187E+01 -0.33183104E-02  0.30383370E+01  0.21437359E+01  0.37211877E+01  0.42945110E+01 -0.40640836E-02 -0.21437359E+01  0.37211877E+01  0.21507751E+01 -0.37171236E+01 -0.21507751E+01 -0.37171236E+01 -0.42945110E+01 -0.40640836E-02  0.62694126E+06 -0.14903159E-07  0.79642093E+00  0.20357908E+00
  0.71000000E+00  0.71000000E+00  0.10000000E+01  0.00000000E+00  0.00000000E+00  0.14200000E+00  0.10000000E+01  0.00000000E+00  0.00000000E+00  0.00000000E+00  0.10000000E+01 -0.36232911E+00  0.30497872E+01 -0.86519056E-02  0.30375855E+01 -0.85927147E-01  0.36892753E-02 -0.81280285E-02  0.36892752E-02 -0.13348014E-01  0.69008030E-01 -0.85927147E-01 -0.13348014E-01  0.30375855E+01  0.36892753E-02 -0.81280285E-02  0.52629881E+01  0.81915014E-01 -0.10089044E-01 -0.19169802E-02  0.17634238E-02 -0.30470555E+01 -0.13328681E-01  0.30301171E+01 -0.30369665E+01 -0.32396373E-02  0.30402061E+01  0.21451688E+01  0.37234769E+01  0.42972100E+01 -0.39677292E-02 -0.21451688E+01  0.37234769E+01  0.21520411E+01 -0.37195091E+01 -0.21520411E+01 -0.37195091E+01 -0.42972100E+01 -0.39677292E-02  0.62789661E+06 -0.16175029E-07  0.79642153E+00  0.20357849E+00
  0.72000000E+00  0.72000000E+00  0.10000000E+01  0.00000000E+00  0.00000000E+00  0.14400000E+00  0.10000000E+01  0.00000000E+00  0.00000000E+00  0.00000000E+00  0.10000000E+01 -0.36841130E+00  0.30519076E+01 -0.88017390E-02  0.30394457E+01 -0.86540810E-01  0.35810937E-02 -0.82860615E-02  0.35810937E-02 -0.13393859E-01  0.69268874E-01 -0.86540810E-01 -0.13393859E-01  0.30394457E+01  0.35810937E-02 -0.82860615E-02  0.52662287E+01  0.83066774E-01 -0.10221932E-01 -0.19410345E-02  0.17151234E-02 -0.30491028E+01 -0.13374775E-01  0.30318118E+01 -0.30388809E+01 -0.31528433E-02  0.30420337E+01  0.21465839E+01  0.37257152E+01  0.42998560E+01 -0.38614287E-02 -0.21465839E+01  0.37257152E+01  0.21532721E+01 -0.37218538E+01 -0.21532721E+01 -0.37218538E+01 -0.42998560E+01 -0.38614287E-02  0.62883539E+06 -0.17483744E-07  0.79642215E+00  0.20357787E+00
  0.73000000E+00  0.73000000E+00  0.10000000E+01  0.00000000E+00  0.00000000E+00  0.14600000E+00  0.10000000E+01  0.00000000E+00  0.00000000E+00  0.00000000E+00  0.10000000E+01 -0.37444457E+00  0.30540018E+01 -0.89630797E-02  0.30412671E+01 -0.87224263E-01  0.34750848E-02 -0.84557173E-02  0.34750848E-02 -0.13436747E-01  0.69580428E-01 -0.87224263E-01 -0.13436747E-01  0.30412671E+01  0.34750848E-02 -0.84557173E-02  0.52694051E+01  0.84218452E-01 -0.10360194E-01 -0.19661032E-02  0.16623656E-02 -0.30511226E+01 -0.13417898E-01  0.30334599E+01 -0.30407624E+01 -0.30577039E-02  0.30438201E+01  0.21479816E+01  0.37279031E+01  0.43024496E+01 -0.37449072E-02 -0.21479816E+01  0.37279031E+01  0.21544680E+01 -0.37241582E+01 -0.21544680E+01 -0.37241582E+01 -0.43024496E+01 -0.37449072E-02  0.62975756E+06 -0.18819720E-07  0.79642280E+00  0.20357722E+00
  0.74000000E+00  0.74000000E+00  0.10000000E+01  0.00000000E+00  0.00000000E+00  0.14800000E+00  0.10000000E+01  0.00000000E+00  0.00000000E+00  0.00000000E+00  0.10000000E+01 -0.38042736E+00  0.30560709E+01 -0.91359565E-02  0.30430501E+01 -0.87978784E-01  0.33720652E-02 -0.86368909E-02  0.33720652E-02 -0.13476281E-01  0.69944049E-01 -0.87978784E-01 -0.13476281E-01  0.30430501E+01  0.33720652E-02 -0.86368909E-02  0.52725178E+01  0.85370046E-01 -0.10503672E-01 -0.19921549E-02  0.16050253E-02 -0.30531152E+01 -0.13457650E-01  0.30350618E+01 -0.30426115E+01 -0.29539779E-02  0.30455655E+01  0.21493625E+01  0.37300407E+01  0.43049912E+01 -0.36178693E-02 -0.21493625E+01  0.37300407E+01  0.21556288E+01 -0.37264228E+01 -0.21556288E+01 -0.37264228E+01 -0.43049912E+01 -0.36178693E-02  0.63066315E+06 -0.20180017E-07  0.79642348E+00  0.20357654E+00
  0.75000000E+00  0.75000000E+00  0.10000000E+01  0.00000000E+00  0.00000000E+00  0.15000000E+00  0.10000000E+01  0.00000000E+00  0.00000000E+00  0.00000000E+00  0.10000000E+01 -0.38636095E+00  0.30581163E+01 -0.93194778E-02  0.30447958E+01 -0.88803050E-01  0.32703493E-02 -0.88289254E-02  0.32703493E-02 -0.13513492E-01  0.70358428E-01 -0.88803050E-01 -0.13513492E-01  0.30447958E+01  0.32703493E-02 -0.88289254E-02  0.52755690E+01  0.86521555E-01 -0.10652705E-01 -0.20192523E-02  0.15434906E-02 -0.30550817E+01 -0.13495075E-01  0.30366187E+01 -0.30444290E+01 -0.28423701E-02  0.30472714E+01  0.21507265E+01  0.37321300E+01  0.43074827E+01 -0.34811782E-02 -0.21507265E+01  0.37321300E+01  0.21567561E+01 -0.37286488E+01 -0.21567561E+01 -0.37286488E+01 -0.43074827E+01 -0.34811782E-02  0.63155267E+06 -0.21556684E-07  0.79642418E+00  0.20357584E+00
  0.76000000E+00  0.76000000E+00  0.10000000E+01  0.00000000E+00  0.00000000E+00  0.15200000E+00  0.10000000E+01  0.00000000E+00  0.00000000E+00  0.00000000E+00  0.10000000E+01 -0.39224729E+00  0.30601395E+01 -0.95120097E-02  0.30465060E+01 -0.89693866E-01  0.31692940E-02 -0.90302770E-02  0.31692940E-02 -0.13548919E-01  0.70821628E-01 -0.89693866E-01 -0.13548919E-01  0.30465060E+01  0.31692940E-02 -0.90302770E-02  0.52785616E+01  0.87672979E-01 -0.10807052E-01 -0.20473480E-02  0.14781935E-02 -0.30570233E+01 -0.13530721E-01  0.30381328E+01 -0.30462162E+01 -0.27236682E-02  0.30489399E+01  0.21520742E+01  0.37341735E+01  0.43099262E+01 -0.33357987E-02 -0.21520742E+01  0.37341735E+01  0.21578520E+01 -0.37308377E+01 -0.21578520E+01 -0.37308377E+01 -0.43099262E+01 -0.33357987E-02  0.63242705E+06 -0.22932633E-07  0.79642492E+00  0.20357511E+00
  0.77000000E+00  0.77000000E+00  0.10000000E+01  0.00000000E+00  0.00000000E+00  0.15400000E+00  0.10000000E+01  0.00000000E+00  0.00000000E+00  0.00000000E+00  0.10000000E+01 -0.39808684E+00  0.30621414E+01 -0.97124451E-02  0.30481814E+01 -0.90649478E-01  0.30677737E-02 -0.92400079E-02  0.30677737E-02 -0.13582273E-01  0.71333090E-01 -0.90649478E-01 -0.13582273E-01  0.30481814E+01  0.30677737E-02 -0.92400079E-02  0.52814967E+01  0.88824315E-01 -0.10966220E-01 -0.20763471E-02  0.14092553E-02 -0.30589399E+01 -0.13564309E-01  0.30396055E+01 -0.30479737E+01 -0.25980889E-02  0.30505717E+01  0.21534057E+01  0.37361721E+01  0.43123228E+01 -0.31819960E-02 -0.21534057E+01  0.37361721E+01  0.21589171E+01 -0.37329901E+01 -0.21589171E+01 -0.37329901E+01 -0.43123228E+01 -0.31819960E-02  0.63328665E+06 -0.24291973E-07  0.79642567E+00  0.20357435E+00
  0.78000000E+00  0.78000000E+00  0.10000000E+01  0.00000000E+00  0.00000000E+00  0.15600000E+00  0.10000000E+01  0.00000000E+00  0.00000000E+00  0.00000000E+00  0.10000000E+01 -0.40387946E+00  0.30641229E+01 -0.99201785E-02  0.30498225E+01 -0.91669337E-01  0.29655942E-02 -0.94575458E-02  0.29655942E-02 -0.13613608E-01  0.71892851E-01 -0.91669337E-01 -0.13613608E-01  0.30498225E+01  0.29655942E-02 -0.94575458E-02  0.52843755E+01  0.89975564E-01 -0.11130031E-01 -0.21062150E-02  0.13368067E-02 -0.30608320E+01 -0.13595898E-01  0.30410378E+01 -0.30497019E+01 -0.24658668E-02  0.30521678E+01  0.21547213E+01  0.37381269E+01  0.43146735E+01 -0.30200578E-02 -0.21547213E+01  0.37381269E+01  0.21599522E+01 -0.37351068E+01 -0.21599522E+01 -0.37351068E+01 -0.43146735E+01 -0.30200578E-02  0.63413163E+06 -0.25626769E-07  0.79642646E+00  0.20357357E+00
  0.79000000E+00  0.79000000E+00  0.10000000E+01  0.00000000E+00  0.00000000E+00  0.15800000E+00  0.10000000E+01  0.00000000E+00  0.00000000E+00  0.00000000E+00  0.10000000E+01 -0.40962466E+00  0.30660844E+01 -0.10135193E-01  0.30514293E+01 -0.92753927E-01  0.28625211E-02 -0.96829150E-02  0.28625211E-02 -0.13643332E-01  0.72501166E-01 -0.92753927E-01 -0.13643332E-01  0.30514293E+01  0.28625211E-02 -0.96829150E-02  0.52871979E+01  0.91126723E-01 -0.11298698E-01 -0.21369917E-02  0.12609590E-02 -0.30626996E+01 -0.13625899E-01  0.30424294E+01 -0.30514009E+01 -0.23272009E-02  0.30537281E+01  0.21560207E+01  0.37400378E+01  0.43169781E+01 -0.28502273E-02 -0.21560207E+01  0.37400378E+01  0.21609574E+01 -0.37371876E+01 -0.21609574E+01 -0.37371876E+01 -0.43169781E+01 -0.28502273E-02  0.63496187E+06 -0.26924896E-07  0.79642726E+00  0.20357276E+00
  0.80000000E+00  0.80000000E+00  0.10000000E+01  0.00000000E+00  0.00000000E+00  0.16000000E+00  0.10000000E+01  0.00000000E+00  0.00000000E+00  0.00000000E+00  0.10000000E+01 -0.41532185E+00  0.30680256E+01 -0.10356239E-01  0.30530010E+01 -0.93903788E-01  0.27581656E-02 -0.99149325E-02  0.27581656E-02 -0.13671409E-01  0.73158316E-01 -0.93903788E-01 -0.13671409E-01  0.30530010E+01  0.27581656E-02 -0.99149325E-02  0.52899629E+01  0.92277791E-01 -0.11472293E-01 -0.21686907E-02  0.11816601E-02 -0.30645422E+01 -0.13654282E-01  0.30437796E+01 -0.30530699E+01 -0.21819888E-02  0.30552519E+01  0.21573035E+01  0.37419041E+01  0.43192358E+01 -0.26723796E-02 -0.21573035E+01  0.37419041E+01  0.21619322E+01 -0.37392317E+01 -0.21619322E+01 -0.37392317E+01 -0.43192358E+01 -0.26723796E-02  0.63577705E+06 -0.28165229E-07  0.79642810E+00  0.20357193E+00
  0.81000000E+00  0.81000000E+00  0.10000000E+01  0.00000000E+00  0.00000000E+00  0.16200000E+00  0.10000000E+01  0.00000000E+00  0.00000000E+00  0.00000000E+00  0.10000000E+01 -0.42097150E+00  0.30699481E+01 -0.10581975E-01  0.30545390E+01 -0.95117944E-01  0.26519401E-02 -0.10152360E-01  0.26519401E-02 -0.13697417E-01  0.73863819E-01 -0.95117944E-01 -0.13697417E-01  0.30545390E+01  0.26519401E-02 -0.10152360E-01  0.52926724E+01  0.93428769E-01 -0.11650514E-01 -0.22012535E-02  0.10988529E-02 -0.30663608E+01 -0.13680635E-01  0.30450899E+01 -0.30547103E+01 -0.20301209E-02  0.30567404E+01  0.21585708E+01  0.37437271E+01  0.43214482E+01 -0.24863802E-02 -0.21585708E+01  0.37437271E+01  0.21628774E+01 -0.37412408E+01 -0.21628774E+01 -0.37412408E+01 -0.43214482E+01 -0.24863802E-02  0.63657754E+06 -0.29341424E-07  0.79642895E+00  0.20357108E+00
  0.82000000E+00  0.82000000E+00  0.10000000E+01  0.00000000E+00  0.00000000E+00  0.16400000E+00  0.10000000E+01  0.00000000E+00  0.00000000E+00  0.00000000E+00  0.10000000E+01 -0.42657355E+00  0.30718529E+01 -0.10811043E-01  0.30560441E+01 -0.96395098E-01  0.25436792E-02 -0.10393879E-01  0.25436792E-02 -0.13720985E-01  0.74617691E-01 -0.96395098E-01 -0.13720985E-01  0.30560441E+01  0.25436792E-02 -0.10393879E-01  0.52953284E+01  0.94579653E-01 -0.11832797E-01 -0.22345729E-02  0.10126458E-02 -0.30681557E+01 -0.13704590E-01  0.30463619E+01 -0.30563229E+01 -0.18717930E-02  0.30581947E+01  0.21598231E+01  0.37455083E+01  0.43236169E+01 -0.22924689E-02 -0.21598231E+01  0.37455083E+01  0.21637938E+01 -0.37432158E+01 -0.21637938E+01 -0.37432158E+01 -0.43236169E+01 -0.22924689E-02  0.63736388E+06 -0.30436542E-07  0.79642983E+00  0.20357020E+00
  0.83000000E+00  0.83000000E+00  0.10000000E+01  0.00000000E+00  0.00000000E+00  0.16600000E+00  0.10000000E+01  0.00000000E+00  0.00000000E+00  0.00000000E+00  0.10000000E+01 -0.43212659E+00  0.30737395E+01 -0.11042260E-01  0.30575151E+01 -0.97737293E-01  0.24338445E-02 -0.10638241E-01  0.24338444E-02 -0.13741326E-01  0.75420924E-01 -0.97737293E-01 -0.13741326E-01  0.30575151E+01  0.24338445E-02 -0.10638241E-01  0.52979287E+01  0.95730444E-01 -0.12019232E-01 -0.22686662E-02  0.92256944E-03 -0.30699264E+01 -0.13725363E-01  0.30475940E+01 -0.30579071E+01 -0.17061316E-02  0.30596133E+01  0.21610604E+01  0.37472456E+01  0.43257401E+01 -0.20895759E-02 -0.21610604E+01  0.37472456E+01  0.21646797E+01 -0.37451561E+01 -0.21646797E+01 -0.37451561E+01 -0.43257401E+01 -0.20895759E-02  0.63813550E+06 -0.31427483E-07  0.79643073E+00  0.20356930E+00
  0.84000000E+00  0.84000000E+00  0.10000000E+01  0.00000000E+00  0.00000000E+00  0.16800000E+00  0.10000000E+01  0.00000000E+00  0.00000000E+00  0.00000000E+00  0.10000000E+01 -0.43762797E+00  0.30756082E+01 -0.11274375E-01  0.30589515E+01 -0.99146738E-01  0.23218831E-02 -0.10884298E-01  0.23218831E-02 -0.13758123E-01  0.76275887E-01 -0.99146738E-01 -0.13758123E-01  0.30589515E+01  0.23218831E-02 -0.10884298E-01  0.53004726E+01  0.96881140E-01 -0.12209658E-01 -0.23035036E-02  0.82854423E-03 -0.30716722E+01 -0.13742642E-01  0.30487858E+01 -0.30594625E+01 -0.15329841E-02  0.30609955E+01  0.21622827E+01  0.37489385E+01  0.43278174E+01 -0.18775144E-02 -0.21622827E+01  0.37489385E+01  0.21655347E+01 -0.37470610E+01 -0.21655347E+01 -0.37470610E+01 -0.43278174E+01 -0.18775144E-02  0.63889212E+06 -0.32299895E-07  0.79643165E+00  0.20356838E+00
  0.85000000E+00  0.85000000E+00  0.10000000E+01  0.00000000E+00  0.00000000E+00  0.17000000E+00  0.10000000E+01  0.00000000E+00  0.00000000E+00  0.00000000E+00  0.10000000E+01 -0.44307665E+00  0.30774603E+01 -0.11506308E-01  0.30603542E+01 -0.10062457E+00  0.22073635E-02 -0.11131056E-01  0.22073635E-02 -0.13770312E-01  0.77183553E-01 -0.10062457E+00 -0.13770312E-01  0.30603542E+01  0.22073635E-02 -0.11131056E-01  0.53029619E+01  0.98031740E-01 -0.12403777E-01 -0.23390280E-02  0.73016344E-03 -0.30733942E+01 -0.13755370E-01  0.30499383E+01 -0.30609905E+01 -0.13515930E-02  0.30623421E+01  0.21634914E+01  0.37505877E+01  0.43298499E+01 -0.16553566E-02 -0.21634914E+01  0.37505877E+01  0.21663586E+01 -0.37489324E+01 -0.21663586E+01 -0.37489324E+01 -0.43298499E+01 -0.16553566E-02  0.63963386E+06 -0.33046659E-07  0.79643259E+00  0.20356744E+00
  0.86000000E+00  0.86000000E+00  0.10000000E+01  0.00000000E+00  0.00000000E+00  0.17200000E+00  0.10000000E+01  0.00000000E+00  0.00000000E+00  0.00000000E+00  0.10000000E+01 -0.44846863E+00  0.30792964E+01 -0.11735214E-01  0.30617221E+01 -0.10217596E+00  0.20892588E-02 -0.11375862E-01  0.20892588E-02 -0.13776014E-01  0.78147578E-01 -0.10217596E+00 -0.13776014E-01  0.30617221E+01  0.20892588E-02 -0.11375862E-01  0.53053953E+01  0.99182243E-01 -0.12601464E-01 -0.23752168E-02  0.62648873E-03 -0.30750926E+01 -0.13761679E-01  0.30510499E+01 -0.30624911E+01 -0.11602147E-02  0.30636513E+01  0.21646879E+01  0.37521913E+01  0.43318369E+01 -0.14209670E-02 -0.21646879E+01  0.37521913E+01  0.21671490E+01 -0.37507703E+01 -0.21671490E+01 -0.37507703E+01 -0.43318369E+01 -0.14209670E-02  0.64035979E+06 -0.33656163E-07  0.79643355E+00  0.20356648E+00
  0.87000000E+00  0.87000000E+00  0.10000000E+01  0.00000000E+00  0.00000000E+00  0.17400000E+00  0.10000000E+01  0.00000000E+00  0.00000000E+00  0.00000000E+00  0.10000000E+01 -0.45380315E+00  0.30811171E+01 -0.11959998E-01  0.30630556E+01 -0.10380172E+00  0.19672794E-02 -0.11617691E-01  0.19672794E-02 -0.13774784E-01  0.79168525E-01 -0.10380172E+00 -0.13774784E-01  0.30630556E+01  0.19672794E-02 -0.11617691E-01  0.53077732E+01  0.10033265E+00 -0.12802659E-01 -0.24120584E-02  0.51732002E-03 -0.30767676E+01 -0.13761130E-01  0.30521207E+01 -0.30639649E+01 -0.95847106E-03  0.30649234E+01  0.21658726E+01  0.37537492E+01  0.43337785E+01 -0.11738825E-02 -0.21658726E+01  0.37537492E+01  0.21679059E+01 -0.37525753E+01 -0.21679059E+01 -0.37525753E+01 -0.43337785E+01 -0.11738825E-02  0.64106997E+06 -0.34121504E-07  0.79643452E+00  0.20356551E+00
  0.88000000E+00  0.88000000E+00  0.10000000E+01  0.00000000E+00  0.00000000E+00  0.17600000E+00  0.10000000E+01  0.00000000E+00  0.00000000E+00  0.00000000E+00  0.10000000E+01 -0.45908649E+00  0.30829232E+01 -0.12184943E-01  0.30643562E+01 -0.10549397E+00  0.18444822E-02 -0.11860315E-01  0.18444822E-02 -0.13768676E-01  0.80240206E-01 -0.10549397E+00 -0.13768676E-01  0.30643562E+01  0.18444822E-02 -0.11860314E-01  0.53100983E+01  0.10148295E+00 -0.13007481E-01 -0.24495745E-02  0.40368992E-03 -0.30784200E+01 -0.13755750E-01  0.30531533E+01 -0.30654125E+01 -0.74826912E-03  0.30661607E+01  0.21670448E+01  0.37552646E+01  0.43356770E+01 -0.91643876E-03 -0.21670448E+01  0.37552646E+01  0.21686322E+01 -0.37543482E+01 -0.21686322E+01 -0.37543482E+01 -0.43356770E+01 -0.91643876E-03  0.64176580E+06 -0.34426882E-07  0.79643552E+00  0.20356452E+00
  0.89000000E+00  0.89000000E+00  0.10000000E+01  0.00000000E+00  0.00000000E+00  0.17800000E+00  0.10000000E+01  0.00000000E+00  0.00000000E+00  0.00000000E+00  0.10000000E+01 -0.46431721E+00  0.30847145E+01 -0.12408175E-01  0.30656232E+01 -0.10725467E+00  0.17204380E-02 -0.12101937E-01  0.17204380E-02 -0.13757720E-01  0.81363715E-01 -0.10725467E+00 -0.13757720E-01  0.30656232E+01  0.17204380E-02 -0.12101937E-01  0.53123693E+01  0.10263316E+00 -0.13216226E-01 -0.24878213E-02  0.28546094E-03 -0.30800494E+01 -0.13745575E-01  0.30541463E+01 -0.30668332E+01 -0.52934927E-03  0.30673625E+01  0.21682042E+01  0.37567365E+01  0.43375313E+01 -0.64831780E-03 -0.21682042E+01  0.37567365E+01  0.21693271E+01 -0.37560882E+01 -0.21693271E+01 -0.37560882E+01 -0.43375313E+01 -0.64831780E-03  0.64244688E+06 -0.34551991E-07  0.79643653E+00  0.20356350E+00
  0.90000000E+00  0.90000000E+00  0.10000000E+01  0.00000000E+00  0.00000000E+00  0.18000000E+00  0.10000000E+01  0.00000000E+00  0.00000000E+00  0.00000000E+00  0.10000000E+01 -0.46949349E+00  0.30864919E+01 -0.12628752E-01  0.30668562E+01 -0.10908694E+00  0.15950747E-02 -0.12341638E-01  0.15950747E-02 -0.13741251E-01  0.82540629E-01 -0.10908694E+00 -0.13741251E-01  0.30668562E+01  0.15950747E-02 -0.12341638E-01  0.53145863E+01  0.10378326E+00 -0.13429187E-01 -0.25268547E-02  0.16211995E-03 -0.30816566E+01 -0.13729943E-01  0.30550990E+01 -0.30682274E+01 -0.30075530E-03  0.30685282E+01  0.21693518E+01  0.37581642E+01  0.43393415E+01 -0.36834851E-03 -0.21693518E+01  0.37581642E+01  0.21699898E+01 -0.37577958E+01 -0.21699898E+01 -0.37577958E+01 -0.43393415E+01 -0.36834851E-03  0.64311298E+06 -0.34487124E-07  0.79643757E+00  0.20356246E+00
  0.91000000E+00  0.91000000E+00  0.10000000E+01  0.00000000E+00  0.00000000E+00  0.18200000E+00  0.10000000E+01  0.00000000E+00  0.00000000E+00  0.00000000E+00  0.10000000E+01 -0.47461365E+00  0.30882561E+01 -0.12845585E-01  0.30680554E+01 -0.11099284E+00  0.14681957E-02 -0.12578373E-01  0.14681956E-02 -0.13719004E-01  0.83772427E-01 -0.11099284E+00 -0.13719004E-01  0.30680554E+01  0.14681957E-02 -0.12578373E-01  0.53167493E+01  0.10493326E+00 -0.13646474E-01 -0.25666950E-02  0.33468993E-04 -0.30832420E+01 -0.13708588E-01  0.30560112E+01 -0.30695956E+01 -0.62114957E-04  0.30696577E+01  0.21704879E+01  0.37595475E+01  0.43411076E+01 -0.76074975E-04 -0.21704879E+01  0.37595475E+01  0.21706197E+01 -0.37594714E+01 -0.21706197E+01 -0.37594714E+01 -0.43411076E+01 -0.76074975E-04  0.64376400E+06 -0.34217891E-07  0.79643863E+00  0.20356140E+00
  0.92000000E+00  0.92000000E+00  0.10000000E+01  0.00000000E+00  0.00000000E+00  0.18400000E+00  0.10000000E+01  0.00000000E+00  0.00000000E+00  0.00000000E+00  0.10000000E+01 -0.47968363E+00  0.30900102E+01 -0.13060877E-01  0.30692253E+01 -0.11296150E+00  0.13398756E-02 -0.12814340E-01  0.13398756E-02 -0.13692344E-01  0.85053835E-01 -0.11296150E+00 -0.13692344E-01  0.30692253E+01  0.13398756E-02 -0.12814340E-01  0.53188662E+01  0.10608316E+00 -0.13866668E-01 -0.26070722E-02 -0.98991559E-04 -0.30848074E+01 -0.13682877E-01  0.30568903E+01 -0.30709407E+01  0.18379115E-03  0.30707570E+01  0.21716130E+01  0.37608938E+01  0.43428361E+01  0.22509727E-03 -0.21716130E+01  0.37608938E+01  0.21712231E+01 -0.37611189E+01 -0.21712231E+01 -0.37611189E+01 -0.43428361E+01  0.22509727E-03  0.64440267E+06 -0.33736619E-07  0.79643970E+00  0.20356033E+00
  0.93000000E+00  0.93000000E+00  0.10000000E+01  0.00000000E+00  0.00000000E+00  0.18600000E+00  0.10000000E+01  0.00000000E+00  0.00000000E+00  0.00000000E+00  0.10000000E+01 -0.48470326E+00  0.30917558E+01 -0.13274769E-01  0.30703672E+01 -0.11499253E+00  0.12101574E-02 -0.13049680E-01  0.12101574E-02 -0.13661233E-01  0.86385040E-01 -0.11499253E+00 -0.13661233E-01  0.30703672E+01  0.12101574E-02 -0.13049680E-01  0.53209392E+01  0.10723295E+00 -0.14089575E-01 -0.26479489E-02 -0.23517518E-03 -0.30863537E+01 -0.13652771E-01  0.30577377E+01 -0.30722641E+01  0.43680454E-03  0.30718273E+01  0.21727276E+01  0.37622047E+01  0.43445287E+01  0.53497412E-03 -0.21727276E+01  0.37622047E+01  0.21718010E+01 -0.37627397E+01 -0.21718010E+01 -0.37627397E+01 -0.43445287E+01  0.53497412E-03  0.64502953E+06 -0.33032376E-07  0.79644079E+00  0.20355924E+00
  0.94000000E+00  0.94000000E+00  0.10000000E+01  0.00000000E+00  0.00000000E+00  0.18800000E+00  0.10000000E+01  0.00000000E+00  0.00000000E+00  0.00000000E+00  0.10000000E+01 -0.48967297E+00  0.30934935E+01 -0.13486685E-01  0.30714815E+01 -0.11708490E+00  0.10784368E-02 -0.13283939E-01  0.10784368E-02 -0.13625700E-01  0.87765552E-01 -0.11708490E+00 -0.13625700E-01  0.30714815E+01  0.10784368E-02 -0.13283939E-01  0.53229694E+01  0.10838264E+00 -0.14315016E-01 -0.26892915E-02 -0.37496702E-03 -0.30878811E+01 -0.13618302E-01  0.30585544E+01 -0.30735661E+01  0.69671378E-03  0.30728694E+01  0.21738321E+01  0.37634810E+01  0.43461862E+01  0.85329663E-03 -0.21738321E+01  0.37634810E+01  0.21723541E+01 -0.37643343E+01 -0.21723541E+01 -0.37643343E+01 -0.43461862E+01  0.85329663E-03  0.64564499E+06 -0.32089510E-07  0.79644189E+00  0.20355814E+00
  0.95000000E+00  0.95000000E+00  0.10000000E+01  0.00000000E+00  0.00000000E+00  0.19000000E+00  0.10000000E+01  0.00000000E+00  0.00000000E+00  0.00000000E+00  0.10000000E+01 -0.49459209E+00  0.30952241E+01 -0.13696278E-01  0.30725686E+01 -0.11923960E+00  0.94505316E-03 -0.13516718E-01  0.94505314E-03 -0.13585536E-01  0.89195939E-01 -0.11923960E+00 -0.13585536E-01  0.30725686E+01  0.94505316E-03 -0.13516718E-01  0.53249573E+01  0.10953222E+00 -0.14543067E-01 -0.27311143E-02 -0.51851934E-03 -0.30893904E+01 -0.13579264E-01  0.30593404E+01 -0.30748473E+01  0.96380337E-03  0.30738835E+01  0.21749269E+01  0.37647230E+01  0.43478092E+01  0.11804132E-02 -0.21749269E+01  0.37647230E+01  0.21728824E+01 -0.37659035E+01 -0.21728824E+01 -0.37659035E+01 -0.43478092E+01  0.11804132E-02  0.64624915E+06 -0.30892484E-07  0.79644301E+00  0.20355702E+00
  0.96000000E+00  0.96000000E+00  0.10000000E+01  0.00000000E+00  0.00000000E+00  0.19200000E+00  0.10000000E+01  0.00000000E+00  0.00000000E+00  0.00000000E+00  0.10000000E+01 -0.49945924E+00  0.30969479E+01 -0.13903161E-01  0.30736280E+01 -0.12145773E+00  0.80949171E-03 -0.13747738E-01  0.80949171E-03 -0.13540572E-01  0.90677335E-01 -0.12145773E+00 -0.13540572E-01  0.30736280E+01  0.80949171E-03 -0.13747738E-01  0.53269025E+01  0.11068169E+00 -0.14773656E-01 -0.27734046E-02 -0.66588220E-03 -0.30908812E+01 -0.13535488E-01  0.30600957E+01 -0.30761075E+01  0.12381678E-02  0.30748693E+01  0.21760120E+01  0.37659304E+01  0.43493974E+01  0.15164397E-02 -0.21760120E+01  0.37659304E+01  0.21733854E+01 -0.37674469E+01 -0.21733854E+01 -0.37674469E+01 -0.43493974E+01  0.15164397E-02  0.64684184E+06 -0.29439021E-07  0.79644414E+00  0.20355589E+00
  0.97000000E+00  0.97000000E+00  0.10000000E+01  0.00000000E+00  0.00000000E+00  0.19400000E+00  0.10000000E+01  0.00000000E+00  0.00000000E+00  0.00000000E+00  0.10000000E+01 -0.50427232E+00  0.30986634E+01 -0.14107283E-01  0.30746577E+01 -0.12374080E+00  0.67126055E-03 -0.13977059E-01  0.67126055E-03 -0.13491052E-01  0.92211280E-01 -0.12374080E+00 -0.13491052E-01  0.30746577E+01  0.67126055E-03 -0.13977059E-01  0.53288019E+01  0.11183105E+00 -0.15006859E-01 -0.28161788E-02 -0.81696123E-03 -0.30923516E+01 -0.13487227E-01  0.30608182E+01 -0.30773447E+01  0.15196318E-02  0.30758251E+01  0.21770859E+01  0.37671010E+01  0.43509481E+01  0.18611612E-02 -0.21770859E+01  0.37671010E+01  0.21738622E+01 -0.37689622E+01 -0.21738622E+01 -0.37689622E+01 -0.43509481E+01  0.18611612E-02  0.64742218E+06 -0.27672070E-07  0.79644528E+00  0.20355475E+00
  0.98000000E+00  0.98000000E+00  0.10000000E+01  0.00000000E+00  0.00000000E+00  0.19600000E+00  0.10000000E+01  0.00000000E+00  0.00000000E+00  0.00000000E+00  0.10000000E+01 -0.50902835E+00  0.31003723E+01 -0.14307501E-01  0.30756579E+01 -0.12609382E+00  0.52954066E-03 -0.14203711E-01  0.52954066E-03 -0.13436204E-01  0.93800594E-01 -0.12609382E+00 -0.13436204E-01  0.30756579E+01  0.52954066E-03 -0.14203711E-01  0.53306559E+01  0.11298030E+00 -0.15243145E-01 -0.28595251E-02 -0.97241940E-03 -0.30938031E+01 -0.13433715E-01  0.30615074E+01 -0.30785599E+01  0.18094293E-02  0.30767505E+01  0.21781501E+01  0.37682344E+01  0.43524618E+01  0.22160892E-02 -0.21781501E+01  0.37682344E+01  0.21743117E+01 -0.37704505E+01 -0.21743117E+01 -0.37704505E+01 -0.43524618E+01  0.22160892E-02  0.64798996E+06 -0.25550024E-07  0.79644643E+00  0.20355359E+00
  0.99000000E+00  0.99000000E+00  0.10000000E+01  0.00000000E+00  0.00000000E+00  0.19800000E+00  0.10000000E+01  0.00000000E+00  0.00000000E+00  0.00000000E+00  0.10000000E+01 -0.51373038E+00  0.31020754E+01 -0.14503781E-01  0.30766303E+01 -0.12851054E+00  0.38515120E-03 -0.14427521E-01  0.38515119E-03 -0.13376945E-01  0.95442422E-01 -0.12851054E+00 -0.13376945E-01  0.30766303E+01  0.38515120E-03 -0.14427521E-01  0.53324679E+01  0.11412944E+00 -0.15481688E-01 -0.29032877E-02 -0.11313228E-02 -0.30952358E+01 -0.13375864E-01  0.30621666E+01 -0.30797541E+01  0.21058243E-02  0.30776483E+01  0.21792041E+01  0.37693340E+01  0.43539410E+01  0.25790975E-02 -0.21792041E+01  0.37693340E+01  0.21747369E+01 -0.37719131E+01 -0.21747369E+01 -0.37719131E+01 -0.43539410E+01  0.25790975E-02  0.64854640E+06 -0.23084775E-07  0.79644760E+00  0.20355242E+00
  0.10000000E+01  0.10000000E+01  0.10000000E+01  0.00000000E+00  0.00000000E+00  0.20000000E+00  0.10000000E+01  0.00000000E+00  0.00000000E+00  0.00000000E+00  0.10000000E+01 -0.51838463E+00  0.31037745E+01 -0.14696223E-01  0.30775782E+01 -0.13098154E+00  0.23862392E-03 -0.14648498E-01  0.23862393E-03 -0.13313755E-01  0.97131014E-01 -0.13098154E+00 -0.13313755E-01  0.30775782E+01  0.23862392E-03 -0.14648498E-01  0.53342428E+01  0.11527846E+00 -0.15721427E-01 -0.29472649E-02 -0.12928445E-02 -0.30966509E+01 -0.13314148E-01  0.30628008E+01 -0.30809295E+01  0.24072789E-02  0.30785222E+01  0.21802483E+01  0.37704043E+01  0.43553900E+01  0.29483024E-02 -0.21802483E+01  0.37704043E+01  0.21751417E+01 -0.37733526E+01 -0.21751417E+01 -0.37733526E+01 -0.43553900E+01  0.29483024E-02  0.64909314E+06 -0.20271078E-07  0.79644877E+00  0.20355125E+00
