            Time      LoadFactor            F_xx            F_yx            F_zx            F_xy            F_yy            F_zy            F_xz            F_yz            F_zz            P_xx            P_yx            P_zx            P_xy            P_yy            P_zy            P_xz            P_yz            P_zz        sigma_xx        sigma_yy        sigma_zz        sigma_xy        sigma_yz        sigma_xz  EftvCauchyStre     EquivStrain        Pressure     Triaxiality  LodeAngleParam     PrncStreMin     PrncStreMid     PrncStreMax  PrncDevStreMin  PrncDevStreMid  PrncDevStreMax       PiPlaneX1       PiPlaneY1       PiPlaneX2       PiPlaneY2       PiPlaneX3       PiPlaneY3       PiPlaneX4       PiPlaneY4       PiPlaneX5       PiPlaneY5       PiPlaneX6       PiPlaneY6   ElasticEnergy        Porosity      GrpVolFr_1      GrpVolFr_2
  0.00000000E+00  0.00000000E+00  0.10000000E+01  0.00000000E+00  0.00000000E+00  0.00000000E+00  0.10000000E+01  0.00000000E+00  0.00000000E+00  0.00000000E+00  0.10000000E+01  0.00000000E+00  0.00000000E+00  0.00000000E+00  0.00000000E+00  0.00000000E+00  0.00000000E+00  0.00000000E+00  0.00000000E+00  0.00000000E+00  0.00000000E+00  0.00000000E+00  0.00000000E+00  0.00000000E+00  0.00000000E+00  0.00000000E+00  0.00000000E+00  0.00000000E+00  0.00000000E+00             NaN  0.00000000E+00  0.00000000E+00  0.00000000E+00  0.00000000E+00  0.00000000E+00  0.00000000E+00  0.00000000E+00  0.00000000E+00  0.00000000E+00  0.00000000E+00  0.00000000E+00  0.00000000E+00  0.00000000E+00  0.00000000E+00  0.00000000E+00  0.00000000E+00  0.00000000E+00  0.00000000E+00  0.00000000E+00  0.00000000E+00  0.36115555E-12  0.79637500E+00  0.20362500E+00
  0.10000000E-01  0.10000000E-01  0.10018249E+01  0.00000000E+00  0.00000000E+00  0.00000000E+00  0.10000000E+01  0.00000000E+00  0.00000000E+00  0.00000000E+00  0.10000000E+01  0.31370425E+00  0.56952640E-04  0.37984012E-05  0.57056572E-04  0.12105113E+00  0.25188451E-05  0.38053330E-05  0.25188451E-05  0.12162425E+00  0.31370425E+00  0.12083063E+00  0.12140270E+00  0.56952640E-04  0.25142569E-05  0.37984012E-05  0.19258825E+00  0.12154770E-02  0.18531253E+00  0.96222138E+00  0.99508657E+00  0.12083060E+00  0.12140271E+00  0.31370427E+00 -0.64481926E-01 -0.63909813E-01  0.12839174E+00  0.40454505E-03  0.15724712E+00  0.13638228E+00 -0.78273216E-01 -0.40454505E-03  0.15724712E+00  0.13597773E+00 -0.78973908E-01 -0.13597773E+00 -0.78973908E-01 -0.13638228E+00 -0.78273216E-01  0.10128980E+04 -0.37747583E-13  0.79656432E+00  0.20343568E+00
  0.20000000E-01  0.20000000E-01  0.10036531E+01  0.00000000E+00  0.00000000E+00  0.00000000E+00  0.10000000E+01  0.00000000E+00  0.00000000E+00  0.00000000E+00  0.10000000E+01  0.62607495E+00  0.11817649E-03  0.84300368E-05  0.11860820E-03  0.24203032E+00  0.51440227E-05  0.84608328E-05  0.51440227E-05  0.24316904E+00  0.62607495E+00  0.24114938E+00  0.24228395E+00  0.11817649E-03  0.51252995E-05  0.84300368E-05  0.38435959E+00  0.24309541E-02  0.36983609E+00  0.96221378E+00  0.99511731E+00  0.24114932E+00  0.24228398E+00  0.62607499E+00 -0.12868677E+00 -0.12755212E+00  0.25623889E+00  0.80232319E-03  0.31382727E+00  0.27218355E+00 -0.15621880E+00 -0.80232319E-03  0.31382727E+00  0.27138122E+00 -0.15760847E+00 -0.27138122E+00 -0.15760847E+00 -0.27218355E+00 -0.15621880E+00  0.40424600E+04 -0.23159252E-12  0.79675395E+00  0.20324605E+00
  0.30000000E-01  0.30000000E-01  0.10054846E+01  0.00000000E+00  0.00000000E+00  0.00000000E+00  0.10000000E+01  0.00000000E+00  0.00000000E+00  0.00000000E+00  0.10000000E+01  0.93711506E+00  0.18364557E-03  0.13883319E-04  0.18465280E-03  0.36293747E+00  0.78807853E-05  0.13959464E-04  0.78807853E-05  0.36463427E+00  0.93711506E+00  0.36095775E+00  0.36264530E+00  0.18364557E-03  0.78377978E-05  0.13883319E-04  0.57531548E+00  0.36464311E-02  0.55357270E+00  0.96220721E+00  0.99514806E+00  0.36095766E+00  0.36264533E+00  0.93711512E+00 -0.19261504E+00 -0.19092737E+00  0.38354241E+00  0.11933662E-02  0.46974161E+00  0.40740485E+00 -0.23383732E+00 -0.11933662E-02  0.46974161E+00  0.40621148E+00 -0.23590429E+00 -0.40621148E+00 -0.23590429E+00 -0.40740485E+00 -0.23383732E+00  0.90750167E+04 -0.86952667E-12  0.79694389E+00  0.20305611E+00
  0.40000000E-01  0.40000000E-01  0.10073195E+01  0.00000000E+00  0.00000000E+00  0.00000000E+00  0.10000000E+01  0.00000000E+00  0.00000000E+00  0.00000000E+00  0.10000000E+01  0.12468275E+01  0.25333381E-03  0.20146768E-04  0.25518809E-03  0.48377249E+00  0.10734427E-04  0.20294233E-04  0.10734427E-04  0.48601985E+00  0.12468275E+01  0.48025724E+00  0.48248827E+00  0.25333381E-03  0.10656427E-04  0.20146768E-04  0.76545734E+00  0.48619082E-02  0.73652435E+00  0.96220169E+00  0.99517883E+00  0.48025711E+00  0.48248832E+00  0.12468276E+01 -0.25626724E+00 -0.25403603E+00  0.51030327E+00  0.15777061E-02  0.62499131E+00  0.54204720E+00 -0.31112932E+00 -0.15777061E-02  0.62499131E+00  0.54046950E+00 -0.31386199E+00 -0.54046950E+00 -0.31386199E+00 -0.54204720E+00 -0.31112932E+00  0.16096937E+05 -0.20849988E-11  0.79713413E+00  0.20286587E+00
  0.50000000E-01  0.50000000E-01  0.10091578E+01  0.00000000E+00  0.00000000E+00  0.00000000E+00  0.10000000E+01  0.00000000E+00  0.00000000E+00  0.00000000E+00  0.10000000E+01  0.15552153E+01  0.32721498E-03  0.27208880E-04  0.33021153E-03  0.60453528E+00  0.13710346E-04  0.27458052E-04  0.13710346E-04  0.60732568E+00  0.15552153E+01  0.59904934E+00  0.60181441E+00  0.32721498E-03  0.13585929E-04  0.27208880E-04  0.95478661E+00  0.60773852E-02  0.91869302E+00  0.96219722E+00  0.99520961E+00  0.59904916E+00  0.60181447E+00  0.15552154E+01 -0.31964386E+00 -0.31687854E+00  0.63652240E+00  0.19553747E-02  0.77957755E+00  0.67611165E+00 -0.38809537E+00 -0.19553747E-02  0.77957755E+00  0.67415627E+00 -0.39148218E+00 -0.67415627E+00 -0.39148218E+00 -0.67611165E+00 -0.38809537E+00  0.25094627E+05 -0.40729642E-11  0.79732468E+00  0.20267532E+00
  0.60000000E-01  0.60000000E-01  0.10109993E+01  0.00000000E+00  0.00000000E+00  0.00000000E+00  0.10000000E+01  0.00000000E+00  0.00000000E+00  0.00000000E+00  0.10000000E+01  0.18622813E+01  0.40526269E-03  0.35058373E-04  0.40972032E-03  0.72522574E+00  0.16813988E-04  0.35443993E-04  0.16813988E-04  0.72855165E+00  0.18622813E+01  0.71733552E+00  0.72062524E+00  0.40526269E-03  0.16631057E-04  0.35058373E-04  0.11433047E+01  0.72928623E-02  0.11000807E+01  0.96219379E+00  0.99524040E+00  0.71733529E+00  0.72062533E+00  0.18622815E+01 -0.38274540E+00 -0.37945537E+00  0.76220078E+00  0.23264040E-02  0.93350149E+00  0.80959921E+00 -0.46473602E+00 -0.23264040E-02  0.93350149E+00  0.80727281E+00 -0.46876547E+00 -0.80727281E+00 -0.46876547E+00 -0.80959921E+00 -0.46473602E+00  0.36054533E+05 -0.70035089E-11  0.79751553E+00  0.20248447E+00
  0.70000000E-01  0.70000000E-01  0.10128443E+01  0.00000000E+00  0.00000000E+00  0.00000000E+00  0.10000000E+01  0.00000000E+00  0.00000000E+00  0.00000000E+00  0.10000000E+01  0.21680285E+01  0.48745056E-03  0.43684031E-04  0.49371153E-03  0.84584377E+00  0.20050912E-04  0.44245142E-04  0.20050913E-04  0.84969767E+00  0.21680285E+01  0.83511728E+00  0.83892230E+00  0.48745056E-03  0.19796638E-04  0.43684031E-04  0.13310131E+01  0.85083393E-02  0.12806894E+01  0.96219141E+00  0.99527120E+00  0.83511700E+00  0.83892240E+00  0.21680287E+01 -0.44557237E+00 -0.44176697E+00  0.88733934E+00  0.26908263E-02  0.10867643E+01  0.94251091E+00 -0.54105183E+00 -0.26908263E-02  0.10867643E+01  0.93982009E+00 -0.54571248E+00 -0.93982009E+00 -0.54571248E+00 -0.94251091E+00 -0.54105183E+00  0.48963136E+05 -0.11221690E-10  0.79770669E+00  0.20229331E+00
  0.80000000E-01  0.80000000E-01  0.10146926E+01  0.00000000E+00  0.00000000E+00  0.00000000E+00  0.10000000E+01  0.00000000E+00  0.00000000E+00  0.00000000E+00  0.10000000E+01  0.24724598E+01  0.57375170E-03  0.53074428E-04  0.58218161E-03  0.96638928E+00  0.23426696E-04  0.53854231E-04  0.23426696E-04  0.97076363E+00  0.24724598E+01  0.95239609E+00  0.95670710E+00  0.57375170E-03  0.23087480E-04  0.53074428E-04  0.15179132E+01  0.97238164E-02  0.14605210E+01  0.96219009E+00  0.99530202E+00  0.95239575E+00  0.95670722E+00  0.24724601E+01 -0.50812526E+00 -0.50381379E+00  0.10119391E+01  0.30486725E-02  0.12393672E+01  0.10748478E+01 -0.61704335E+00 -0.30486725E-02  0.12393672E+01  0.10717991E+01 -0.62232381E+00 -0.10717991E+01 -0.62232381E+00 -0.10748478E+01 -0.61704335E+00  0.63806956E+05 -0.16763035E-10  0.79789816E+00  0.20210184E+00
  0.90000000E-01  0.90000000E-01  0.10165443E+01  0.00000000E+00  0.00000000E+00  0.00000000E+00  0.10000000E+01  0.00000000E+00  0.00000000E+00  0.00000000E+00  0.10000000E+01  0.27755450E+01  0.66513101E-03  0.60712709E-04  0.67613514E-03  0.10868634E+01  0.27163826E-04  0.61717159E-04  0.27163826E-04  0.10917504E+01  0.27755450E+01  0.10691746E+01  0.10739821E+01  0.66513101E-03  0.26721733E-04  0.60712709E-04  0.17039722E+01  0.10939293E-01  0.16395673E+01  0.96220307E+00  0.99533301E+00  0.10691742E+01  0.10739822E+01  0.27755453E+01 -0.57039304E+00 -0.56558501E+00  0.11359780E+01  0.33997921E-02  0.13912833E+01  0.12065866E+01 -0.69269734E+00 -0.33997921E-02  0.13912833E+01  0.12031868E+01 -0.69858595E+00 -0.12031868E+01 -0.69858595E+00 -0.12065866E+01 -0.69269734E+00  0.80570575E+05 -0.23977931E-10  0.79808999E+00  0.20191001E+00
  0.10000000E+00  0.10000000E+00  0.10183994E+01  0.00000000E+00  0.00000000E+00  0.00000000E+00  0.10000000E+01  0.00000000E+00  0.00000000E+00  0.00000000E+00  0.10000000E+01  0.30769834E+01  0.76057769E-03  0.58645422E-04  0.77457184E-03  0.12072823E+01  0.29106222E-04  0.59724461E-04  0.29106222E-04  0.12126711E+01  0.30769834E+01  0.11854704E+01  0.11907618E+01  0.76057769E-03  0.28580361E-04  0.58645422E-04  0.18888734E+01  0.12154770E-01  0.18177385E+01  0.96234006E+00  0.99536604E+00  0.11854699E+01  0.11907619E+01  0.30769837E+01 -0.63226863E+00 -0.62697659E+00  0.12592452E+01  0.37420342E-02  0.15422541E+01  0.13375023E+01 -0.76788637E+00 -0.37420342E-02  0.15422541E+01  0.13337602E+01 -0.77436776E+00 -0.13337602E+01 -0.77436776E+00 -0.13375023E+01 -0.76788637E+00  0.99220675E+05 -0.33265168E-10  0.79828267E+00  0.20171733E+00
  0.11000000E+00  0.11000000E+00  0.10202578E+01  0.00000000E+00  0.00000000E+00  0.00000000E+00  0.10000000E+01  0.00000000E+00  0.00000000E+00  0.00000000E+00  0.10000000E+01  0.33762061E+01  0.86636297E-03  0.38713919E-04  0.88391361E-03  0.13276972E+01  0.22875526E-04  0.39498179E-04  0.22875526E-04  0.13335743E+01  0.33762061E+01  0.13013349E+01  0.13070954E+01  0.86636297E-03  0.22421319E-04  0.38713919E-04  0.20719975E+01  0.13370247E-01  0.19948788E+01  0.96278051E+00  0.99540127E+00  0.13013345E+01  0.13070955E+01  0.33762065E+01 -0.69354431E+00 -0.68778335E+00  0.13813277E+01  0.40736125E-02  0.16917740E+01  0.14671560E+01 -0.84235913E+00 -0.40736125E-02  0.16917740E+01  0.14630824E+01 -0.84941483E+00 -0.14630824E+01 -0.84941483E+00 -0.14671560E+01 -0.84235913E+00  0.11969921E+06 -0.46007198E-10  0.79847708E+00  0.20152292E+00
  0.12000000E+00  0.12000000E+00  0.10221197E+01  0.00000000E+00  0.00000000E+00  0.00000000E+00  0.10000000E+01  0.00000000E+00  0.00000000E+00  0.00000000E+00  0.10000000E+01  0.36729441E+01  0.99015331E-03 -0.87082734E-05  0.10120552E-02  0.14481552E+01  0.16233814E-05 -0.89008976E-05  0.16233814E-05  0.14545078E+01  0.36729441E+01  0.14168157E+01  0.14230308E+01  0.99015331E-03  0.15882498E-05 -0.87082734E-05  0.22530280E+01  0.14585725E-01  0.21709302E+01  0.96356113E+00  0.99543702E+00  0.14168152E+01  0.14230308E+01  0.36729446E+01 -0.75411498E+00 -0.74789939E+00  0.15020144E+01  0.43950852E-02  0.18395844E+01  0.15953244E+01 -0.91598594E+00 -0.43950852E-02  0.18395844E+01  0.15909293E+01 -0.92359845E+00 -0.15909293E+01 -0.92359845E+00 -0.15953244E+01 -0.91598594E+00  0.14196158E+06 -0.63578254E-10  0.79867351E+00  0.20132649E+00
  0.13000000E+00  0.13000000E+00  0.10239849E+01  0.00000000E+00  0.00000000E+00  0.00000000E+00  0.10000000E+01  0.00000000E+00  0.00000000E+00  0.00000000E+00  0.10000000E+01  0.39669106E+01  0.11361032E-02 -0.72740598E-04  0.11633525E-02  0.15687192E+01 -0.49981827E-04 -0.74485276E-04 -0.49981827E-04  0.15755358E+01  0.39669106E+01  0.15319749E+01  0.15386319E+01  0.11361032E-02 -0.48811096E-04 -0.72740598E-04  0.24316149E+01  0.15801202E-01  0.23458391E+01  0.96472476E+00  0.99547105E+00  0.15319740E+01  0.15386322E+01  0.39669112E+01 -0.81386514E+00 -0.80720690E+00  0.16210720E+01  0.47080919E-02  0.19853997E+01  0.17217606E+01 -0.98862251E+00 -0.47080919E-02  0.19853997E+01  0.17170525E+01 -0.99677716E+00 -0.17170525E+01 -0.99677716E+00 -0.17217606E+01 -0.98862251E+00  0.16595587E+06 -0.88877572E-10  0.79887229E+00  0.20112771E+00
  0.14000000E+00  0.14000000E+00  0.10258536E+01  0.00000000E+00  0.00000000E+00  0.00000000E+00  0.10000000E+01  0.00000000E+00  0.00000000E+00  0.00000000E+00  0.10000000E+01  0.42582057E+01  0.13164631E-02 -0.15751550E-03  0.13504984E-02  0.16894120E+01 -0.13106546E-03 -0.16158784E-03 -0.13106546E-03  0.16966834E+01  0.42582057E+01  0.16468354E+01  0.16539235E+01  0.13164631E-02 -0.12776235E-03 -0.15751550E-03  0.26078345E+01  0.17016679E-01  0.25196549E+01  0.96618666E+00  0.99550113E+00  0.16468325E+01  0.16539258E+01  0.42582064E+01 -0.87282242E+00 -0.86572907E+00  0.17385515E+01  0.50157566E-02  0.21292820E+01  0.18465202E+01 -0.10602972E+01 -0.50157566E-02  0.21292820E+01  0.18415044E+01 -0.10689848E+01 -0.18415044E+01 -0.10689848E+01 -0.18465202E+01 -0.10602972E+01  0.19165968E+06 -0.12328916E-09  0.79907315E+00  0.20092685E+00
  0.15000000E+00  0.15000000E+00  0.10277256E+01  0.00000000E+00  0.00000000E+00  0.00000000E+00  0.10000000E+01  0.00000000E+00  0.00000000E+00  0.00000000E+00  0.10000000E+01  0.45467828E+01  0.15366295E-02 -0.26803482E-03  0.15792335E-02  0.18102625E+01 -0.24019597E-03 -0.27546626E-03 -0.24019597E-03  0.18179869E+01  0.45467828E+01  0.17614258E+01  0.17689419E+01  0.15366295E-02 -0.23371605E-03 -0.26803482E-03  0.27816079E+01  0.18232156E-01  0.26923835E+01  0.96792344E+00  0.99552174E+00  0.17614177E+01  0.17689491E+01  0.45467837E+01 -0.93096576E+00 -0.92343441E+00  0.18544002E+01  0.53254684E-02  0.22711671E+01  0.19695511E+01 -0.11309716E+01 -0.53254684E-02  0.22711671E+01  0.19642257E+01 -0.11401955E+01 -0.19642257E+01 -0.11401955E+01 -0.19695511E+01 -0.11309716E+01  0.21903818E+06 -0.17029755E-09  0.79927607E+00  0.20072393E+00
  0.16000000E+00  0.16000000E+00  0.10296011E+01  0.00000000E+00  0.00000000E+00  0.00000000E+00  0.10000000E+01  0.00000000E+00  0.00000000E+00  0.00000000E+00  0.10000000E+01  0.48327120E+01  0.17928532E-02 -0.40596643E-03  0.18459236E-02  0.19312944E+01 -0.36913862E-03 -0.41798348E-03 -0.36913862E-03  0.19394612E+01  0.48327120E+01  0.18757696E+01  0.18837016E+01  0.17928532E-02 -0.35852586E-03 -0.40596643E-03  0.29529861E+01  0.19447633E-01  0.28640610E+01  0.96988638E+00  0.99553856E+00  0.18757523E+01  0.18837177E+01  0.48327131E+01 -0.98830869E+00 -0.98034337E+00  0.19686521E+01  0.56323371E-02  0.24110965E+01  0.20908870E+01 -0.12006705E+01 -0.56323371E-02  0.24110965E+01  0.20852547E+01 -0.12104260E+01 -0.20852547E+01 -0.12104260E+01 -0.20908870E+01 -0.12006705E+01  0.24806725E+06 -0.23539370E-09  0.79948087E+00  0.20051913E+00
  0.17000000E+00  0.17000000E+00  0.10314800E+01  0.00000000E+00  0.00000000E+00  0.00000000E+00  0.10000000E+01  0.00000000E+00  0.00000000E+00  0.00000000E+00  0.10000000E+01  0.51157198E+01  0.20898478E-02 -0.55885266E-03  0.21556362E-02  0.20525765E+01 -0.51552528E-03 -0.57644534E-03 -0.51552528E-03  0.20611773E+01  0.51157198E+01  0.19899334E+01  0.19982717E+01  0.20898478E-02 -0.49979184E-03 -0.55885266E-03  0.31216279E+01  0.20663110E-01  0.30346416E+01  0.97213430E+00  0.99554967E+00  0.19899022E+01  0.19983014E+01  0.51157213E+01 -0.10447395E+01 -0.10363402E+01  0.20810796E+01  0.59391705E-02  0.25487916E+01  0.22102879E+01 -0.12692523E+01 -0.59391705E-02  0.25487916E+01  0.22043487E+01 -0.12795393E+01 -0.22043487E+01 -0.12795393E+01 -0.22102879E+01 -0.12692523E+01  0.27868647E+06 -0.32536018E-09  0.79968780E+00  0.20031220E+00
  0.18000000E+00  0.18000000E+00  0.10333623E+01  0.00000000E+00  0.00000000E+00  0.00000000E+00  0.10000000E+01  0.00000000E+00  0.00000000E+00  0.00000000E+00  0.10000000E+01  0.53950584E+01  0.24308331E-02 -0.71556145E-03  0.25119314E-02  0.21742731E+01 -0.65021884E-03 -0.73943425E-03 -0.65021884E-03  0.21832962E+01  0.53950584E+01  0.21040762E+01  0.21128081E+01  0.24308331E-02 -0.62922638E-03 -0.71556145E-03  0.32866281E+01  0.21878587E-01  0.32039809E+01  0.97485350E+00  0.99555958E+00  0.21040294E+01  0.21128529E+01  0.53950604E+01 -0.10999515E+01 -0.10911280E+01  0.21910795E+01  0.62391800E-02  0.26835133E+01  0.23271103E+01 -0.13363534E+01 -0.62391800E-02  0.26835133E+01  0.23208711E+01 -0.13471600E+01 -0.23208711E+01 -0.13471600E+01 -0.23271103E+01 -0.13363534E+01  0.31077259E+06 -0.44920001E-09  0.79989767E+00  0.20010233E+00
  0.19000000E+00  0.19000000E+00  0.10352481E+01  0.00000000E+00  0.00000000E+00  0.00000000E+00  0.10000000E+01  0.00000000E+00  0.00000000E+00  0.00000000E+00  0.10000000E+01  0.56697377E+01  0.28136785E-02 -0.87215349E-03  0.29128552E-02  0.22966130E+01 -0.75576151E-03 -0.90289524E-03 -0.75576151E-03  0.23060246E+01  0.56697377E+01  0.22184180E+01  0.22275092E+01  0.28136785E-02 -0.73002937E-03 -0.87215349E-03  0.34467871E+01  0.23094064E-01  0.33718883E+01  0.97826997E+00  0.99558073E+00  0.22183576E+01  0.22275671E+01  0.56697402E+01 -0.11535307E+01 -0.11443212E+01  0.22978519E+01  0.65120547E-02  0.28142823E+01  0.24404960E+01 -0.14015016E+01 -0.65120547E-02  0.28142823E+01  0.24339840E+01 -0.14127808E+01 -0.24339840E+01 -0.14127808E+01 -0.24404960E+01 -0.14015016E+01  0.34415419E+06 -0.61753269E-09  0.80011150E+00  0.19988850E+00
  0.20000000E+00  0.20000000E+00  0.10371373E+01  0.00000000E+00  0.00000000E+00  0.00000000E+00  0.10000000E+01  0.00000000E+00  0.00000000E+00  0.00000000E+00  0.10000000E+01  0.59384918E+01  0.32493517E-02 -0.10253409E-02  0.33700238E-02  0.24199627E+01 -0.81750826E-03 -0.10634193E-02 -0.81750826E-03  0.24296967E+01  0.59384918E+01  0.23333099E+01  0.23426953E+01  0.32493517E-02 -0.78823533E-03 -0.10253409E-02  0.36005034E+01  0.24309541E-01  0.35381657E+01  0.98268637E+00  0.99562711E+00  0.23332414E+01  0.23427606E+01  0.59384950E+01 -0.12049243E+01 -0.11954051E+01  0.24003293E+01  0.67310786E-02  0.29397910E+01  0.25492993E+01 -0.14640662E+01 -0.67310786E-02  0.29397910E+01  0.25425682E+01 -0.14757248E+01 -0.25425682E+01 -0.14757248E+01 -0.25492993E+01 -0.14640662E+01  0.37860133E+06 -0.84117646E-09  0.80033039E+00  0.19966961E+00
  0.21000000E+00  0.21000000E+00  0.10390299E+01  0.00000000E+00  0.00000000E+00  0.00000000E+00  0.10000000E+01  0.00000000E+00  0.00000000E+00  0.00000000E+00  0.10000000E+01  0.62002316E+01  0.37405233E-02 -0.11498043E-02  0.38865157E-02  0.25447362E+01 -0.83672315E-03 -0.11946811E-02 -0.83672315E-03  0.25547328E+01  0.62002316E+01  0.24491461E+01  0.24587673E+01  0.37405233E-02 -0.80529263E-03 -0.11498043E-02  0.37462906E+01  0.25525018E-01  0.37027150E+01  0.98836834E+00  0.99569187E+00  0.24490757E+01  0.24588336E+01  0.62002357E+01 -0.12536393E+01 -0.12438814E+01  0.24975207E+01  0.68999004E-02  0.30588257E+01  0.26524707E+01 -0.15234374E+01 -0.68999004E-02  0.30588257E+01  0.26455708E+01 -0.15353883E+01 -0.26455708E+01 -0.15353883E+01 -0.26524707E+01 -0.15234374E+01  0.41388631E+06 -0.11320196E-08  0.80055487E+00  0.19944513E+00
  0.22000000E+00  0.22000000E+00  0.10409260E+01  0.00000000E+00  0.00000000E+00  0.00000000E+00  0.10000000E+01  0.00000000E+00  0.00000000E+00  0.00000000E+00  0.10000000E+01  0.64543215E+01  0.43038172E-02 -0.12557464E-02  0.44799554E-02  0.26712834E+01 -0.82402075E-03 -0.13071391E-02 -0.82402075E-03  0.26814918E+01  0.64543215E+01  0.25662566E+01  0.25760637E+01  0.43038172E-02 -0.79162276E-03 -0.12557464E-02  0.38831786E+01  0.26740495E-01  0.38655473E+01  0.99545956E+00  0.99576709E+00  0.25661886E+01  0.25761265E+01  0.64543267E+01 -0.12993586E+01 -0.12894208E+01  0.25887794E+01  0.70271448E-02  0.31705943E+01  0.27493288E+01 -0.15792115E+01 -0.70271448E-02  0.31705943E+01  0.27423016E+01 -0.15913828E+01 -0.27423016E+01 -0.15913828E+01 -0.27493288E+01 -0.15792115E+01  0.44982875E+06 -0.15040813E-08  0.80078491E+00  0.19921509E+00
  0.23000000E+00  0.23000000E+00  0.10428256E+01  0.00000000E+00  0.00000000E+00  0.00000000E+00  0.10000000E+01  0.00000000E+00  0.00000000E+00  0.00000000E+00  0.10000000E+01  0.67006917E+01  0.49378305E-02 -0.13620309E-02  0.51492961E-02  0.27998109E+01 -0.78237327E-03 -0.14203607E-02 -0.78237327E-03  0.28102144E+01  0.67006917E+01  0.26848314E+01  0.26948076E+01  0.49378305E-02 -0.75024363E-03 -0.13620309E-02  0.40108916E+01  0.27955972E-01  0.40267769E+01  0.10039606E+01  0.99583772E+00  0.26847695E+01  0.26948630E+01  0.67006983E+01 -0.13420074E+01 -0.13319140E+01  0.26739214E+01  0.71371472E-02  0.32748715E+01  0.28396905E+01 -0.16312548E+01 -0.71371472E-02  0.32748715E+01  0.28325533E+01 -0.16436167E+01 -0.28325533E+01 -0.16436167E+01 -0.28396905E+01 -0.16312548E+01  0.48632609E+06 -0.19684629E-08  0.80101991E+00  0.19898009E+00
  0.24000000E+00  0.24000000E+00  0.10447286E+01  0.00000000E+00  0.00000000E+00  0.00000000E+00  0.10000000E+01  0.00000000E+00  0.00000000E+00  0.00000000E+00  0.10000000E+01  0.69399429E+01  0.56085997E-02 -0.14567173E-02  0.58594647E-02  0.29303020E+01 -0.71692474E-03 -0.15218743E-02 -0.71692474E-03  0.29408999E+01  0.69399429E+01  0.28048451E+01  0.28149893E+01  0.56085997E-02 -0.68623059E-03 -0.14567173E-02  0.41300475E+01  0.29171449E-01  0.41865924E+01  0.10136911E+01  0.99589786E+00  0.28047916E+01  0.28150347E+01  0.69399511E+01 -0.13818009E+01 -0.13715577E+01  0.27533586E+01  0.72430006E-02  0.33721619E+01  0.29239993E+01 -0.16798083E+01 -0.72430006E-02  0.33721619E+01  0.29167563E+01 -0.16923535E+01 -0.29167563E+01 -0.16923535E+01 -0.29239993E+01 -0.16798083E+01  0.52337990E+06 -0.25346563E-08  0.80125886E+00  0.19874114E+00
  0.25000000E+00  0.25000000E+00  0.10466351E+01  0.00000000E+00  0.00000000E+00  0.00000000E+00  0.10000000E+01  0.00000000E+00  0.00000000E+00  0.00000000E+00  0.10000000E+01  0.71725484E+01  0.62805704E-02 -0.15477681E-02  0.65734657E-02  0.30627197E+01 -0.63683207E-03 -0.16199485E-02 -0.63683207E-03  0.30735603E+01  0.71725484E+01  0.29262534E+01  0.29366111E+01  0.62805704E-02 -0.60845662E-03 -0.15477681E-02  0.42411406E+01  0.30386926E-01  0.43451376E+01  0.10245210E+01  0.99592971E+00  0.29262088E+01  0.29366458E+01  0.71725583E+01 -0.14189288E+01 -0.14084918E+01  0.28274206E+01  0.73800770E-02  0.34628689E+01  0.30026225E+01 -0.17250431E+01 -0.73800770E-02  0.34628689E+01  0.29952424E+01 -0.17378258E+01 -0.29952424E+01 -0.17378258E+01 -0.30026225E+01 -0.17250431E+01  0.56098037E+06 -0.32130456E-08  0.80150101E+00  0.19849899E+00
  0.26000000E+00  0.26000000E+00  0.10485451E+01  0.00000000E+00  0.00000000E+00  0.00000000E+00  0.10000000E+01  0.00000000E+00  0.00000000E+00  0.00000000E+00  0.10000000E+01  0.73989089E+01  0.69486747E-02 -0.16345187E-02  0.72859989E-02  0.31970432E+01 -0.55418441E-03 -0.17138666E-02 -0.55418441E-03  0.32081830E+01  0.73989089E+01  0.30490278E+01  0.30596518E+01  0.69486747E-02 -0.52852701E-03 -0.16345187E-02  0.43445966E+01  0.31602403E-01  0.45025295E+01  0.10363516E+01  0.99593169E+00  0.30489907E+01  0.30596771E+01  0.73989207E+01 -0.14535388E+01 -0.14428524E+01  0.28963911E+01  0.75564242E-02  0.35473402E+01  0.30758649E+01 -0.17671260E+01 -0.75564242E-02  0.35473402E+01  0.30683085E+01 -0.17802142E+01 -0.30683085E+01 -0.17802142E+01 -0.30758649E+01 -0.17671260E+01  0.59911465E+06 -0.40125654E-08  0.80174573E+00  0.19825427E+00
  0.27000000E+00  0.27000000E+00  0.10504586E+01  0.00000000E+00  0.00000000E+00  0.00000000E+00  0.10000000E+01  0.00000000E+00  0.00000000E+00  0.00000000E+00  0.10000000E+01  0.76192679E+01  0.76366574E-02 -0.17231849E-02  0.80219923E-02  0.33332993E+01 -0.48170112E-03 -0.18101343E-02 -0.48170112E-03  0.33447880E+01  0.76192679E+01  0.31731848E+01  0.31841217E+01  0.76366574E-02 -0.45856269E-03 -0.17231849E-02  0.44406455E+01  0.32817880E-01  0.46588582E+01  0.10491399E+01  0.99590764E+00  0.31731528E+01  0.31841400E+01  0.76192817E+01 -0.14857054E+01 -0.14747181E+01  0.29604235E+01  0.77691323E-02  0.36257635E+01  0.31438879E+01 -0.18061535E+01 -0.77691323E-02  0.36257635E+01  0.31361187E+01 -0.18196100E+01 -0.31361187E+01 -0.18196100E+01 -0.31438879E+01 -0.18061535E+01  0.63774922E+06 -0.49420386E-08  0.80199256E+00  0.19800744E+00
  0.28000000E+00  0.28000000E+00  0.10523755E+01  0.00000000E+00  0.00000000E+00  0.00000000E+00  0.10000000E+01  0.00000000E+00  0.00000000E+00  0.00000000E+00  0.10000000E+01  0.78336209E+01  0.83321155E-02 -0.17859144E-02  0.87685147E-02  0.34715875E+01 -0.43105130E-03 -0.18794527E-02 -0.43105130E-03  0.34834823E+01  0.78336209E+01  0.32988105E+01  0.33101133E+01  0.83321155E-02 -0.40959836E-03 -0.17859144E-02  0.45291937E+01  0.34033357E-01  0.48141816E+01  0.10629224E+01  0.99585640E+00  0.32987806E+01  0.33101272E+01  0.78336369E+01 -0.15154010E+01 -0.15040544E+01  0.30194554E+01  0.80232782E-02  0.36980625E+01  0.32066277E+01 -0.18420829E+01 -0.80232782E-02  0.36980625E+01  0.31986044E+01 -0.18559796E+01 -0.31986044E+01 -0.18559796E+01 -0.32066277E+01 -0.18420829E+01  0.67680880E+06 -0.60094594E-08  0.80224119E+00  0.19775882E+00
  0.29000000E+00  0.29000000E+00  0.10542960E+01  0.00000000E+00  0.00000000E+00  0.00000000E+00  0.10000000E+01  0.00000000E+00  0.00000000E+00  0.00000000E+00  0.10000000E+01  0.80417537E+01  0.90476714E-02 -0.18022596E-02  0.95389239E-02  0.36120892E+01 -0.40518582E-03 -0.19001151E-02 -0.40518582E-03  0.36244970E+01  0.80417537E+01  0.34260675E+01  0.34378363E+01  0.90476714E-02 -0.38431884E-03 -0.18022596E-02  0.46098409E+01  0.35248834E-01  0.49685525E+01  0.10778143E+01  0.99576249E+00  0.34260374E+01  0.34378478E+01  0.80417722E+01 -0.15425150E+01 -0.15307046E+01  0.30732197E+01  0.83512123E-02  0.37639100E+01  0.32638173E+01 -0.18747227E+01 -0.83512123E-02  0.37639100E+01  0.32554661E+01 -0.18891874E+01 -0.32554661E+01 -0.18891874E+01 -0.32638173E+01 -0.18747227E+01  0.71617976E+06 -0.72222939E-08  0.80249134E+00  0.19750866E+00
  0.30000000E+00  0.30000000E+00  0.10562200E+01  0.00000000E+00  0.00000000E+00  0.00000000E+00  0.10000000E+01  0.00000000E+00  0.00000000E+00  0.00000000E+00  0.10000000E+01  0.82434218E+01  0.97549444E-02 -0.18125098E-02  0.10303367E-01  0.37549874E+01 -0.35857214E-03 -0.19144090E-02 -0.35857214E-03  0.37681333E+01  0.82434218E+01  0.35551187E+01  0.35675649E+01  0.97549444E-02 -0.33948623E-03 -0.18125098E-02  0.46821239E+01  0.36464311E-01  0.51220351E+01  0.10939555E+01  0.99559002E+00  0.35550894E+01  0.35675732E+01  0.82434428E+01 -0.15669457E+01 -0.15544619E+01  0.31214076E+01  0.88273870E-02  0.38229280E+01  0.33151664E+01 -0.19038192E+01 -0.88273870E-02  0.38229280E+01  0.33063391E+01 -0.19191087E+01 -0.33063391E+01 -0.19191087E+01 -0.33151664E+01 -0.19038192E+01  0.75573911E+06 -0.85899321E-08  0.80274269E+00  0.19725732E+00
  0.31000000E+00  0.31000000E+00  0.10581474E+01  0.00000000E+00  0.00000000E+00  0.00000000E+00  0.10000000E+01  0.00000000E+00  0.00000000E+00  0.00000000E+00  0.10000000E+01  0.84383355E+01  0.10455138E-01 -0.18295666E-02  0.11063078E-01  0.39005612E+01 -0.16774741E-03 -0.19359512E-02 -0.16774741E-03  0.39147099E+01  0.84383355E+01  0.36862171E+01  0.36995883E+01  0.10455138E-01 -0.15852934E-03 -0.18295666E-02  0.47454825E+01  0.37679788E-01  0.52747137E+01  0.11115231E+01  0.99533059E+00  0.36861923E+01  0.36995894E+01  0.84383592E+01 -0.15885213E+01 -0.15751242E+01  0.31636455E+01  0.94731606E-02  0.38746587E+01  0.33602894E+01 -0.19291253E+01 -0.94731606E-02  0.38746587E+01  0.33508162E+01 -0.19455333E+01 -0.33508162E+01 -0.19455333E+01 -0.33602894E+01 -0.19291253E+01  0.79535250E+06 -0.10121714E-07  0.80299478E+00  0.19700523E+00
  0.32000000E+00  0.32000000E+00  0.10600784E+01  0.00000000E+00  0.00000000E+00  0.00000000E+00  0.10000000E+01  0.00000000E+00  0.00000000E+00  0.00000000E+00  0.10000000E+01  0.86265267E+01  0.11136979E-01 -0.18921594E-02  0.11806071E-01  0.40490135E+01  0.19118362E-03 -0.20058373E-02  0.19118362E-03  0.40643126E+01  0.86265267E+01  0.38195415E+01  0.38339734E+01  0.11136979E-01  0.18034856E-03 -0.18921594E-02  0.47998254E+01  0.38895265E-01  0.54266805E+01  0.11305996E+01  0.99501658E+00  0.38195133E+01  0.38339751E+01  0.86265533E+01 -0.16071672E+01 -0.15927055E+01  0.31998727E+01  0.10225994E-01  0.39190277E+01  0.33990905E+01 -0.19506579E+01 -0.10225994E-01  0.39190277E+01  0.33888646E+01 -0.19683698E+01 -0.33888646E+01 -0.19683698E+01 -0.33990905E+01 -0.19506579E+01  0.83494672E+06 -0.11825687E-07  0.80324713E+00  0.19675289E+00
  0.33000000E+00  0.33000000E+00  0.10620129E+01  0.00000000E+00  0.00000000E+00  0.00000000E+00  0.10000000E+01  0.00000000E+00  0.00000000E+00  0.00000000E+00  0.10000000E+01  0.88080859E+01  0.11789190E-01 -0.20261532E-02  0.12520272E-01  0.42004642E+01  0.64246617E-03 -0.21518009E-02  0.64246617E-03  0.42170254E+01  0.88080859E+01  0.39551912E+01  0.39707853E+01  0.11789190E-01  0.60495136E-03 -0.20261532E-02  0.48451609E+01  0.40110742E-01  0.55780208E+01  0.11512560E+01  0.99465092E+00  0.39551387E+01  0.39708082E+01  0.88081154E+01 -0.16228820E+01 -0.16072126E+01  0.32300946E+01  0.11080004E-01  0.39560418E+01  0.34315727E+01 -0.19684253E+01 -0.11080004E-01  0.39560418E+01  0.34204927E+01 -0.19876165E+01 -0.34204927E+01 -0.19876165E+01 -0.34315727E+01 -0.19684253E+01  0.87445958E+06 -0.13714472E-07  0.80349928E+00  0.19650074E+00
  0.34000000E+00  0.34000000E+00  0.10639510E+01  0.00000000E+00  0.00000000E+00  0.00000000E+00  0.10000000E+01  0.00000000E+00  0.00000000E+00  0.00000000E+00  0.10000000E+01  0.89834336E+01  0.12412715E-01 -0.22469853E-02  0.13206520E-01  0.43548112E+01  0.10344166E-02 -0.23906823E-02  0.10344166E-02  0.43728185E+01  0.89834336E+01  0.40930562E+01  0.41099812E+01  0.12412715E-01  0.97224079E-03 -0.22469853E-02  0.48819861E+01  0.41326220E-01  0.57288237E+01  0.11734617E+01  0.99421751E+00  0.40929685E+01  0.41100363E+01  0.89834661E+01 -0.16358552E+01 -0.16187873E+01  0.32546425E+01  0.12068795E-01  0.39861067E+01  0.34581040E+01 -0.19826014E+01 -0.12068795E-01  0.39861067E+01  0.34460352E+01 -0.20035052E+01 -0.34460352E+01 -0.20035052E+01 -0.34581040E+01 -0.19826014E+01  0.91390118E+06 -0.15803292E-07  0.80375076E+00  0.19624926E+00
  0.35000000E+00  0.35000000E+00  0.10658926E+01  0.00000000E+00  0.00000000E+00  0.00000000E+00  0.10000000E+01  0.00000000E+00  0.00000000E+00  0.00000000E+00  0.10000000E+01  0.91526196E+01  0.12990958E-01 -0.25551852E-02  0.13846966E-01  0.45122128E+01  0.12656865E-02 -0.27235529E-02  0.12656865E-02  0.45319154E+01  0.91526196E+01  0.42332716E+01  0.42517562E+01  0.12990958E-01  0.11874428E-02 -0.25551852E-02  0.49101858E+01  0.42541697E-01  0.58792158E+01  0.11973510E+01  0.99371071E+00  0.42331606E+01  0.42518316E+01  0.91526553E+01 -0.16460552E+01 -0.16273842E+01  0.32734395E+01  0.13202369E-01  0.40091282E+01  0.34786080E+01 -0.19931305E+01 -0.13202369E-01  0.40091282E+01  0.34654057E+01 -0.20159977E+01 -0.34654057E+01 -0.20159977E+01 -0.34786080E+01 -0.19931305E+01  0.95321180E+06 -0.18108043E-07  0.80400090E+00  0.19599912E+00
  0.36000000E+00  0.36000000E+00  0.10678377E+01  0.00000000E+00  0.00000000E+00  0.00000000E+00  0.10000000E+01  0.00000000E+00  0.00000000E+00  0.00000000E+00  0.10000000E+01  0.93165950E+01  0.13497118E-01 -0.28826157E-02  0.14412731E-01  0.46722372E+01  0.13939629E-02 -0.30781657E-02  0.13939629E-02  0.46937635E+01  0.93165950E+01  0.43754188E+01  0.43955777E+01  0.13497118E-01  0.13054071E-02 -0.28826157E-02  0.49311861E+01  0.43757174E-01  0.60291972E+01  0.12226667E+01  0.99316959E+00  0.43752969E+01  0.43956610E+01  0.93166335E+01 -0.16539002E+01 -0.16335361E+01  0.32874364E+01  0.14399598E-01  0.40262708E+01  0.34940526E+01 -0.20006650E+01 -0.14399598E-01  0.40262708E+01  0.34796530E+01 -0.20256058E+01 -0.34796530E+01 -0.20256058E+01 -0.34940526E+01 -0.20006650E+01  0.99253226E+06 -0.20644445E-07  0.80424971E+00  0.19575031E+00
  0.37000000E+00  0.37000000E+00  0.10697864E+01  0.00000000E+00  0.00000000E+00  0.00000000E+00  0.10000000E+01  0.00000000E+00  0.00000000E+00  0.00000000E+00  0.10000000E+01  0.94763986E+01  0.13931030E-01 -0.31838055E-02  0.14903226E-01  0.48343450E+01  0.14259205E-02 -0.34059918E-02  0.14259205E-02  0.48577227E+01  0.94763986E+01  0.45189817E+01  0.45408343E+01  0.13931030E-01  0.13329021E-02 -0.31838055E-02  0.49465893E+01  0.44972651E-01  0.61787382E+01  0.12490906E+01  0.99262594E+00  0.45188606E+01  0.45409142E+01  0.94764398E+01 -0.16598776E+01 -0.16378240E+01  0.32977016E+01  0.15594247E-01  0.40388431E+01  0.35055379E+01 -0.20059165E+01 -0.15594247E-01  0.40388431E+01  0.34899436E+01 -0.20329266E+01 -0.34899436E+01 -0.20329266E+01 -0.35055379E+01 -0.20059165E+01  0.10320414E+07 -0.23429181E-07  0.80449736E+00  0.19550266E+00
  0.38000000E+00  0.38000000E+00  0.10717386E+01  0.00000000E+00  0.00000000E+00  0.00000000E+00  0.10000000E+01  0.00000000E+00  0.00000000E+00  0.00000000E+00  0.10000000E+01  0.96328101E+01  0.14308441E-01 -0.34469564E-02  0.15334909E-01  0.49980865E+01  0.13556617E-02 -0.36942362E-02  0.13556617E-02  0.50233248E+01  0.96328101E+01  0.46635313E+01  0.46870802E+01  0.14308441E-01  0.12649182E-02 -0.34469564E-02  0.49576124E+01  0.46188128E-01  0.63278072E+01  0.12763820E+01  0.99208465E+00  0.46634214E+01  0.46871465E+01  0.96328537E+01 -0.16643858E+01 -0.16406607E+01  0.33050465E+01  0.16776226E-01  0.40478388E+01  0.35139193E+01 -0.20093908E+01 -0.16776226E-01  0.40478388E+01  0.34971431E+01 -0.20384480E+01 -0.34971431E+01 -0.20384480E+01 -0.35139193E+01 -0.20093908E+01  0.10718733E+07 -0.26475743E-07  0.80474402E+00  0.19525601E+00
  0.39000000E+00  0.39000000E+00  0.10736944E+01  0.00000000E+00  0.00000000E+00  0.00000000E+00  0.10000000E+01  0.00000000E+00  0.00000000E+00  0.00000000E+00  0.10000000E+01  0.97864250E+01  0.14628302E-01 -0.36682762E-02  0.15706326E-01  0.51631959E+01  0.12323492E-02 -0.39386076E-02  0.12323492E-02  0.51901602E+01  0.97864250E+01  0.48088133E+01  0.48339269E+01  0.14628302E-01  0.11477653E-02 -0.36682762E-02  0.49651717E+01  0.47403605E-01  0.64763884E+01  0.13043634E+01  0.99158530E+00  0.48087170E+01  0.48339774E+01  0.97864707E+01 -0.16676714E+01 -0.16424110E+01  0.33100823E+01  0.17861780E-01  0.40540064E+01  0.35198034E+01 -0.20115344E+01 -0.17861780E-01  0.40540064E+01  0.35019416E+01 -0.20424719E+01 -0.35019416E+01 -0.20424719E+01 -0.35198034E+01 -0.20115344E+01  0.11121303E+07 -0.29795211E-07  0.80498978E+00  0.19501025E+00
  0.40000000E+00  0.40000000E+00  0.10756538E+01  0.00000000E+00  0.00000000E+00  0.00000000E+00  0.10000000E+01  0.00000000E+00  0.00000000E+00  0.00000000E+00  0.10000000E+01  0.99376981E+01  0.14893225E-01 -0.38344872E-02  0.16019954E-01  0.53294160E+01  0.11065581E-02 -0.41245806E-02  0.11065581E-02  0.53579372E+01  0.99376981E+01  0.49545832E+01  0.49810984E+01  0.14893225E-01  0.10287308E-02 -0.38344872E-02  0.49699821E+01  0.48619082E-01  0.66244599E+01  0.13328941E+01  0.99113493E+00  0.49544980E+01  0.49811361E+01  0.99377456E+01 -0.16699619E+01 -0.16433238E+01  0.33132857E+01  0.18835989E-01  0.40579297E+01  0.35236882E+01 -0.20126524E+01 -0.18835989E-01  0.40579297E+01  0.35048522E+01 -0.20452773E+01 -0.35048522E+01 -0.20452773E+01 -0.35236882E+01 -0.20126524E+01  0.11528900E+07 -0.33396544E-07  0.80523478E+00  0.19476526E+00
  0.41000000E+00  0.41000000E+00  0.10776167E+01  0.00000000E+00  0.00000000E+00  0.00000000E+00  0.10000000E+01  0.00000000E+00  0.00000000E+00  0.00000000E+00  0.10000000E+01  0.10087015E+02  0.15132986E-01 -0.39558649E-02  0.16307558E-01  0.54965134E+01  0.99349003E-03 -0.42629061E-02  0.99349003E-03  0.55264306E+01  0.10087015E+02  0.51006201E+01  0.51283825E+01  0.15132986E-01  0.92193266E-03 -0.39558649E-02  0.49726458E+01  0.49834559E-01  0.67720058E+01  0.13618516E+01  0.99073064E+00  0.51005428E+01  0.51284107E+01  0.10087064E+02 -0.16714630E+01 -0.16435951E+01  0.33150581E+01  0.19705553E-01  0.40601005E+01  0.35260029E+01 -0.20129847E+01 -0.19705553E-01  0.40601005E+01  0.35062974E+01 -0.20471157E+01 -0.35062974E+01 -0.20471157E+01 -0.35260029E+01 -0.20129847E+01  0.11942223E+07 -0.37292887E-07  0.80547911E+00  0.19452093E+00
  0.42000000E+00  0.42000000E+00  0.10795832E+01  0.00000000E+00  0.00000000E+00  0.00000000E+00  0.10000000E+01  0.00000000E+00  0.00000000E+00  0.00000000E+00  0.10000000E+01  0.10234671E+02  0.15355475E-01 -0.40447280E-02  0.16577513E-01  0.56642953E+01  0.89030415E-03 -0.43666205E-02  0.89030416E-03  0.56954485E+01  0.10234671E+02  0.52467426E+01  0.52755994E+01  0.15355475E-01  0.82467395E-03 -0.40447280E-02  0.49736390E+01  0.51050036E-01  0.69190043E+01  0.13911352E+01  0.99037290E+00  0.52466711E+01  0.52756203E+01  0.10234722E+02 -0.16723332E+01 -0.16433840E+01  0.33157172E+01  0.20470142E-01  0.40609077E+01  0.35270843E+01 -0.20127262E+01 -0.20470142E-01  0.40609077E+01  0.35066141E+01 -0.20481815E+01 -0.35066141E+01 -0.20481815E+01 -0.35270843E+01 -0.20127262E+01  0.12361806E+07 -0.41496650E-07  0.80572291E+00  0.19427713E+00
  0.43000000E+00  0.43000000E+00  0.10815533E+01  0.00000000E+00  0.00000000E+00  0.00000000E+00  0.10000000E+01  0.00000000E+00  0.00000000E+00  0.00000000E+00  0.10000000E+01  0.10380879E+02  0.15563601E-01 -0.41042996E-02  0.16832865E-01  0.58326220E+01  0.79559266E-03 -0.44390188E-02  0.79559268E-03  0.58648501E+01  0.10380879E+02  0.53928196E+01  0.54226176E+01  0.15563601E-01  0.73560188E-03 -0.41042996E-02  0.49733055E+01  0.52265513E-01  0.70654387E+01  0.14206726E+01  0.99006244E+00  0.53927523E+01  0.54226330E+01  0.10380931E+02 -0.16726864E+01 -0.16428057E+01  0.33154921E+01  0.21128849E-01  0.40606320E+01  0.35271749E+01 -0.20120179E+01 -0.21128849E-01  0.40606320E+01  0.35060460E+01 -0.20486141E+01 -0.35060460E+01 -0.20486141E+01 -0.35271749E+01 -0.20120179E+01  0.12788023E+07 -0.46020313E-07  0.80596627E+00  0.19403378E+00
  0.44000000E+00  0.44000000E+00  0.10835270E+01  0.00000000E+00  0.00000000E+00  0.00000000E+00  0.10000000E+01  0.00000000E+00  0.00000000E+00  0.00000000E+00  0.10000000E+01  0.10525788E+02  0.15758653E-01 -0.41378264E-02  0.17074926E-01  0.60013796E+01  0.71590259E-03 -0.44834467E-02  0.71590259E-03  0.60345451E+01  0.10525788E+02  0.55387447E+01  0.55693536E+01  0.15758653E-01  0.66071503E-03 -0.41378264E-02  0.49718895E+01  0.53480990E-01  0.72112954E+01  0.14504134E+01  0.98979212E+00  0.55386801E+01  0.55693649E+01  0.10525841E+02 -0.16726152E+01 -0.16419305E+01  0.33145457E+01  0.21697412E-01  0.40594728E+01  0.35264553E+01 -0.20109459E+01 -0.21697412E-01  0.40594728E+01  0.35047579E+01 -0.20485269E+01 -0.35047579E+01 -0.20485269E+01 -0.35264553E+01 -0.20109459E+01  0.13221106E+07 -0.50875067E-07  0.80620927E+00  0.19379078E+00
  0.45000000E+00  0.45000000E+00  0.10855043E+01  0.00000000E+00  0.00000000E+00  0.00000000E+00  0.10000000E+01  0.00000000E+00  0.00000000E+00  0.00000000E+00  0.10000000E+01  0.10669515E+02  0.15943816E-01 -0.41511357E-02  0.17307082E-01  0.61704713E+01  0.65336444E-03 -0.45060758E-02  0.65336446E-03  0.62044708E+01  0.10669515E+02  0.56844281E+01  0.57157494E+01  0.15943816E-01  0.60189943E-03 -0.41511357E-02  0.49695822E+01  0.54696467E-01  0.73565641E+01  0.14803184E+01  0.98955166E+00  0.56843650E+01  0.57157580E+01  0.10669569E+02 -0.16721991E+01 -0.16408061E+01  0.33130052E+01  0.22198222E-01  0.40575862E+01  0.35250718E+01 -0.20095689E+01 -0.22198222E-01  0.40575862E+01  0.35028736E+01 -0.20480173E+01 -0.35028736E+01 -0.20480173E+01 -0.35250718E+01 -0.20095689E+01  0.13661228E+07 -0.56072651E-07  0.80645199E+00  0.19354807E+00
  0.46000000E+00  0.46000000E+00  0.10874852E+01  0.00000000E+00  0.00000000E+00  0.00000000E+00  0.10000000E+01  0.00000000E+00  0.00000000E+00  0.00000000E+00  0.10000000E+01  0.10812153E+02  0.16116076E-01 -0.41510385E-02  0.17525995E-01  0.63398164E+01  0.60647369E-03 -0.45141931E-02  0.60647369E-03  0.63745700E+01  0.10812153E+02  0.58297953E+01  0.58617531E+01  0.16116076E-01  0.55768453E-03 -0.41510385E-02  0.49665398E+01  0.55911944E-01  0.75012339E+01  0.15103541E+01  0.98933419E+00  0.58297330E+01  0.58617598E+01  0.10812209E+02 -0.16715009E+01 -0.16394741E+01  0.33109749E+01  0.22646371E-01  0.40550996E+01  0.35231424E+01 -0.20079375E+01 -0.22646371E-01  0.40550996E+01  0.35004961E+01 -0.20471621E+01 -0.35004961E+01 -0.20471621E+01 -0.35231424E+01 -0.20079375E+01  0.14108518E+07 -0.61623221E-07  0.80669449E+00  0.19330557E+00
  0.47000000E+00  0.47000000E+00  0.10894698E+01  0.00000000E+00  0.00000000E+00  0.00000000E+00  0.10000000E+01  0.00000000E+00  0.00000000E+00  0.00000000E+00  0.10000000E+01  0.10953774E+02  0.16275952E-01 -0.41411075E-02  0.17732157E-01  0.65093600E+01  0.57418900E-03 -0.45116114E-02  0.57418900E-03  0.65448007E+01  0.10953774E+02  0.59747963E+01  0.60073266E+01  0.16275952E-01  0.52703528E-03 -0.41411075E-02  0.49628780E+01  0.57127421E-01  0.76452990E+01  0.15404971E+01  0.98913597E+00  0.59747341E+01  0.60073321E+01  0.10953831E+02 -0.16705649E+01 -0.16379669E+01  0.33085318E+01  0.23050225E-01  0.40521074E+01  0.35207531E+01 -0.20060916E+01 -0.23050225E-01  0.40521074E+01  0.34977028E+01 -0.20460158E+01 -0.34977028E+01 -0.20460158E+01 -0.35207531E+01 -0.20060916E+01  0.14563060E+07 -0.67536604E-07  0.80693682E+00  0.19306325E+00
  0.48000000E+00  0.48000000E+00  0.10914579E+01  0.00000000E+00  0.00000000E+00  0.00000000E+00  0.10000000E+01  0.00000000E+00  0.00000000E+00  0.00000000E+00  0.10000000E+01  0.11094432E+02  0.16420819E-01 -0.41242317E-02  0.17922634E-01  0.66790599E+01  0.55074825E-03 -0.45014254E-02  0.55074827E-03  0.67151287E+01  0.11094432E+02  0.61193930E+01  0.61524394E+01  0.16420819E-01  0.50459870E-03 -0.41242317E-02  0.49586854E+01  0.58342898E-01  0.77887548E+01  0.15707298E+01  0.98895485E+00  0.61193307E+01  0.61524440E+01  0.11094490E+02 -0.16694242E+01 -0.16363108E+01  0.33057350E+01  0.23414700E-01  0.40486820E+01  0.35179688E+01 -0.20040633E+01 -0.23414700E-01  0.40486820E+01  0.34945541E+01 -0.20446187E+01 -0.34945541E+01 -0.20446187E+01 -0.35179688E+01 -0.20040633E+01  0.15024901E+07 -0.73821932E-07  0.80717900E+00  0.19282108E+00
  0.49000000E+00  0.49000000E+00  0.10934497E+01  0.00000000E+00  0.00000000E+00  0.00000000E+00  0.10000000E+01  0.00000000E+00  0.00000000E+00  0.00000000E+00  0.10000000E+01  0.11234171E+02  0.16554502E-01 -0.41016642E-02  0.18101516E-01  0.68488832E+01  0.53172348E-03 -0.44849635E-02  0.53172348E-03  0.68855263E+01  0.11234171E+02  0.62635558E+01  0.62970672E+01  0.16554502E-01  0.48628070E-03 -0.41016642E-02  0.49540331E+01  0.59558375E-01  0.79315981E+01  0.16010386E+01  0.98878935E+00  0.62634932E+01  0.62970713E+01  0.11234230E+02 -0.16681049E+01 -0.16345269E+01  0.33026318E+01  0.23743248E-01  0.40448814E+01  0.35148416E+01 -0.20018784E+01 -0.23743248E-01  0.40448814E+01  0.34910984E+01 -0.20430029E+01 -0.34910984E+01 -0.20430029E+01 -0.35148416E+01 -0.20018784E+01  0.15494068E+07 -0.80488124E-07  0.80742107E+00  0.19257901E+00
  0.50000000E+00  0.50000000E+00  0.10954451E+01  0.00000000E+00  0.00000000E+00  0.00000000E+00  0.10000000E+01  0.00000000E+00  0.00000000E+00  0.00000000E+00  0.10000000E+01  0.11373026E+02  0.16673790E-01 -0.40736603E-02  0.18265222E-01  0.70188053E+01  0.51453141E-03 -0.44624712E-02  0.51453144E-03  0.70559712E+01  0.11373026E+02  0.64072633E+01  0.64411910E+01  0.16673790E-01  0.46970077E-03 -0.40736603E-02  0.49489750E+01  0.60773852E-01  0.80738266E+01  0.16314139E+01  0.98863886E+00  0.64072005E+01  0.64411945E+01  0.11373085E+02 -0.16666262E+01 -0.16326321E+01  0.32992583E+01  0.24037403E-01  0.40407497E+01  0.35114106E+01 -0.19995578E+01 -0.24037403E-01  0.40407497E+01  0.34873732E+01 -0.20411918E+01 -0.34873732E+01 -0.20411918E+01 -0.35114106E+01 -0.19995578E+01  0.15970561E+07 -0.87543327E-07  0.80766304E+00  0.19233704E+00
  0.51000000E+00  0.51000000E+00  0.10974442E+01  0.00000000E+00  0.00000000E+00  0.00000000E+00  0.10000000E+01  0.00000000E+00  0.00000000E+00  0.00000000E+00  0.10000000E+01  0.11511023E+02  0.16778293E-01 -0.40393667E-02  0.18413240E-01  0.71888021E+01  0.49847347E-03 -0.44329795E-02  0.49847349E-03  0.72264482E+01  0.11511023E+02  0.65504946E+01  0.65847980E+01  0.16778293E-01  0.45421306E-03 -0.40393667E-02  0.49435562E+01  0.61989329E-01  0.82154385E+01  0.16618479E+01  0.98850074E+00  0.65504315E+01  0.65848011E+01  0.11511083E+02 -0.16650070E+01 -0.16306374E+01  0.32956444E+01  0.24302989E-01  0.40363235E+01  0.35077102E+01 -0.19971148E+01 -0.24302989E-01  0.40363235E+01  0.34834072E+01 -0.20392088E+01 -0.34834072E+01 -0.20392088E+01 -0.35077102E+01 -0.19971148E+01  0.16454368E+07 -0.94994359E-07  0.80790495E+00  0.19209515E+00
  0.52000000E+00  0.52000000E+00  0.10994469E+01  0.00000000E+00  0.00000000E+00  0.00000000E+00  0.10000000E+01  0.00000000E+00  0.00000000E+00  0.00000000E+00  0.10000000E+01  0.11648187E+02  0.16869805E-01 -0.40005089E-02  0.18547454E-01  0.73588544E+01  0.48110579E-03 -0.43983470E-02  0.48110582E-03  0.73969447E+01  0.11648187E+02  0.66932333E+01  0.67278782E+01  0.16869805E-01  0.43758894E-03 -0.40005089E-02  0.49378140E+01  0.63204806E-01  0.83564329E+01  0.16923345E+01  0.98837306E+00  0.66931700E+01  0.67278809E+01  0.11648248E+02 -0.16632629E+01 -0.16285520E+01  0.32918150E+01  0.24544299E-01  0.40316335E+01  0.35037692E+01 -0.19945608E+01 -0.24544299E-01  0.40316335E+01  0.34792249E+01 -0.20370727E+01 -0.34792249E+01 -0.20370727E+01 -0.35037692E+01 -0.19945608E+01  0.16945471E+07 -0.10284733E-06  0.80814680E+00  0.19185331E+00
  0.53000000E+00  0.53000000E+00  0.11014532E+01  0.00000000E+00  0.00000000E+00  0.00000000E+00  0.10000000E+01  0.00000000E+00  0.00000000E+00  0.00000000E+00  0.10000000E+01  0.11784538E+02  0.16950581E-01 -0.39575263E-02  0.18670272E-01  0.75289475E+01  0.46259066E-03 -0.43590302E-02  0.46259068E-03  0.75674500E+01  0.11784538E+02  0.68354673E+01  0.68704234E+01  0.16950581E-01  0.41998212E-03 -0.39575263E-02  0.49317780E+01  0.64420283E-01  0.84968096E+01  0.17228695E+01  0.98825456E+00  0.68354038E+01  0.68704256E+01  0.11784599E+02 -0.16614058E+01 -0.16263840E+01  0.32877898E+01  0.24764120E-01  0.40267037E+01  0.34996098E+01 -0.19919055E+01 -0.24764120E-01  0.40267037E+01  0.34748456E+01 -0.20347982E+01 -0.34748456E+01 -0.20347982E+01 -0.34996098E+01 -0.19919055E+01  0.17443841E+07 -0.11110769E-06  0.80838860E+00  0.19161151E+00
  0.54000000E+00  0.54000000E+00  0.11034632E+01  0.00000000E+00  0.00000000E+00  0.00000000E+00  0.10000000E+01  0.00000000E+00  0.00000000E+00  0.00000000E+00  0.10000000E+01  0.11920093E+02  0.17019831E-01 -0.39111299E-02  0.18780758E-01  0.76990677E+01  0.44296516E-03 -0.43157881E-02  0.44296518E-03  0.77379543E+01  0.11920093E+02  0.69771855E+01  0.70124259E+01  0.17019831E-01  0.40143173E-03 -0.39111299E-02  0.49254752E+01  0.65635760E-01  0.86365683E+01  0.17534487E+01  0.98814419E+00  0.69771220E+01  0.70124277E+01  0.11920155E+02 -0.16594463E+01 -0.16241406E+01  0.32835869E+01  0.24964885E-01  0.40215562E+01  0.34952523E+01 -0.19891579E+01 -0.24964885E-01  0.40215562E+01  0.34702874E+01 -0.20323983E+01 -0.34702874E+01 -0.20323983E+01 -0.34952523E+01 -0.19891579E+01  0.17949446E+07 -0.11978091E-06  0.80863037E+00  0.19136975E+00
  0.55000000E+00  0.55000000E+00  0.11054769E+01  0.00000000E+00  0.00000000E+00  0.00000000E+00  0.10000000E+01  0.00000000E+00  0.00000000E+00  0.00000000E+00  0.10000000E+01  0.12054869E+02  0.17077630E-01 -0.38632346E-02  0.18878926E-01  0.78692049E+01  0.42184256E-03 -0.42707167E-02  0.42184256E-03  0.79084462E+01  0.12054869E+02  0.71183800E+01  0.71538772E+01  0.17077630E-01  0.38159327E-03 -0.38632346E-02  0.49189298E+01  0.66851237E-01  0.87757086E+01  0.17840687E+01  0.98804222E+00  0.71183165E+01  0.71538785E+01  0.12054931E+02 -0.16573921E+01 -0.16218301E+01  0.32792223E+01  0.25146145E-01  0.40162107E+01  0.34907135E+01 -0.19863281E+01 -0.25146145E-01  0.40162107E+01  0.34655674E+01 -0.20298825E+01 -0.34655674E+01 -0.20298825E+01 -0.34907135E+01 -0.19863281E+01  0.18462251E+07 -0.12887100E-06  0.80887211E+00  0.19112802E+00
  0.56000000E+00  0.56000000E+00  0.11074943E+01  0.00000000E+00  0.00000000E+00  0.00000000E+00  0.10000000E+01  0.00000000E+00  0.00000000E+00  0.00000000E+00  0.10000000E+01  0.12188879E+02  0.17124935E-01 -0.38121946E-02  0.18965768E-01  0.80393482E+01  0.39869090E-03 -0.42219838E-02  0.39869090E-03  0.80789204E+01  0.12188879E+02  0.72590426E+01  0.72947738E+01  0.17124935E-01  0.35999364E-03 -0.38121946E-02  0.49121622E+01  0.68066715E-01  0.89142317E+01  0.18147267E+01  0.98794711E+00  0.72589792E+01  0.72947747E+01  0.12188941E+02 -0.16552526E+01 -0.16194570E+01  0.32747096E+01  0.25311279E-01  0.40106838E+01  0.34860097E+01 -0.19834217E+01 -0.25311279E-01  0.40106838E+01  0.34606984E+01 -0.20272621E+01 -0.34606984E+01 -0.20272621E+01 -0.34860097E+01 -0.19834217E+01  0.18982222E+07 -0.13838113E-06  0.80911384E+00  0.19088630E+00
  0.57000000E+00  0.57000000E+00  0.11095153E+01  0.00000000E+00  0.00000000E+00  0.00000000E+00  0.10000000E+01  0.00000000E+00  0.00000000E+00  0.00000000E+00  0.10000000E+01  0.12322134E+02  0.17160616E-01 -0.37587226E-02  0.19039967E-01  0.82094877E+01  0.37354496E-03 -0.41703604E-02  0.37354492E-03  0.82493698E+01  0.12322134E+02  0.73991656E+01  0.74351111E+01  0.17160616E-01  0.33667399E-03 -0.37587226E-02  0.49051893E+01  0.69282192E-01  0.90521370E+01  0.18454205E+01  0.98785794E+00  0.73991024E+01  0.74351116E+01  0.12322197E+02 -0.16530347E+01 -0.16170255E+01  0.32700601E+01  0.25462342E-01  0.40049894E+01  0.34811537E+01 -0.19804437E+01 -0.25462342E-01  0.40049894E+01  0.34556914E+01 -0.20245457E+01 -0.34556914E+01 -0.20245457E+01 -0.34811537E+01 -0.19804437E+01  0.19509310E+07 -0.14831325E-06  0.80935556E+00  0.19064459E+00
  0.58000000E+00  0.58000000E+00  0.11115401E+01  0.00000000E+00  0.00000000E+00  0.00000000E+00  0.10000000E+01  0.00000000E+00  0.00000000E+00  0.00000000E+00  0.10000000E+01  0.12454647E+02  0.17185808E-01 -0.37033298E-02  0.19102714E-01  0.83796153E+01  0.34574335E-03 -0.41163994E-02  0.34574336E-03  0.84197908E+01  0.12454647E+02  0.75387433E+01  0.75748873E+01  0.17185808E-01  0.31104893E-03 -0.37033298E-02  0.48980264E+01  0.70497669E-01  0.91894259E+01  0.18761487E+01  0.98777335E+00  0.75386803E+01  0.75748874E+01  0.12454710E+02 -0.16507456E+01 -0.16145385E+01  0.32652841E+01  0.25602279E-01  0.39991399E+01  0.34761579E+01 -0.19773977E+01 -0.25602279E-01  0.39991399E+01  0.34505556E+01 -0.20217422E+01 -0.34505556E+01 -0.20217422E+01 -0.34761579E+01 -0.19773977E+01  0.20043474E+07 -0.15866904E-06  0.80959728E+00  0.19040288E+00
  0.59000000E+00  0.59000000E+00  0.11135685E+01  0.00000000E+00  0.00000000E+00  0.00000000E+00  0.10000000E+01  0.00000000E+00  0.00000000E+00  0.00000000E+00  0.10000000E+01  0.12586426E+02  0.17201039E-01 -0.36444067E-02  0.19154535E-01  0.85497232E+01  0.31574274E-03 -0.40582964E-02  0.31574274E-03  0.85901812E+01  0.12586426E+02  0.76777704E+01  0.77141022E+01  0.17201039E-01  0.28354137E-03 -0.36444067E-02  0.48906860E+01  0.71713146E-01  0.93260996E+01  0.19069103E+01  0.98769173E+00  0.76777077E+01  0.77141019E+01  0.12586489E+02 -0.16483919E+01 -0.16119977E+01  0.32603897E+01  0.25734567E-01  0.39931455E+01  0.34710327E+01 -0.19742860E+01 -0.25734567E-01  0.39931455E+01  0.34452982E+01 -0.20188595E+01 -0.34452982E+01 -0.20188595E+01 -0.34710327E+01 -0.19742860E+01  0.20584665E+07 -0.16944829E-06  0.80983900E+00  0.19016117E+00
  0.60000000E+00  0.60000000E+00  0.11156006E+01  0.00000000E+00  0.00000000E+00  0.00000000E+00  0.10000000E+01  0.00000000E+00  0.00000000E+00  0.00000000E+00  0.10000000E+01  0.12717483E+02  0.17205804E-01 -0.35826386E-02  0.19194805E-01  0.87198036E+01  0.28416843E-03 -0.39967939E-02  0.28416847E-03  0.87605340E+01  0.12717483E+02  0.78162412E+01  0.78527511E+01  0.17205804E-01  0.25472237E-03 -0.35826386E-02  0.48831841E+01  0.72928623E-01  0.94621584E+01  0.19377026E+01  0.98761275E+00  0.78161789E+01  0.78527504E+01  0.12717546E+02 -0.16459795E+01 -0.16094080E+01  0.32553876E+01  0.25859957E-01  0.39870192E+01  0.34657899E+01 -0.19711142E+01 -0.25859957E-01  0.39870192E+01  0.34399300E+01 -0.20159050E+01 -0.34399300E+01 -0.20159050E+01 -0.34657899E+01 -0.19711142E+01  0.21132845E+07 -0.18065080E-06  0.81008072E+00  0.18991946E+00
  0.61000000E+00  0.61000000E+00  0.11176365E+01  0.00000000E+00  0.00000000E+00  0.00000000E+00  0.10000000E+01  0.00000000E+00  0.00000000E+00  0.00000000E+00  0.10000000E+01  0.12847827E+02  0.17200210E-01 -0.35199359E-02  0.19223582E-01  0.88898501E+01  0.25000569E-03 -0.39340087E-02  0.25000573E-03  0.89308419E+01  0.12847827E+02  0.79541519E+01  0.79908290E+01  0.17200210E-01  0.22369142E-03 -0.35199359E-02  0.48755345E+01  0.74144100E-01  0.95976025E+01  0.19685231E+01  0.98753681E+00  0.79540899E+01  0.79908280E+01  0.12847890E+02 -0.16435126E+01 -0.16067745E+01  0.32502871E+01  0.25977746E-01  0.39807725E+01  0.34604390E+01 -0.19678889E+01 -0.25977746E-01  0.39807725E+01  0.34344612E+01 -0.20128836E+01 -0.34344612E+01 -0.20128836E+01 -0.34604390E+01 -0.19678889E+01  0.21687971E+07 -0.19227497E-06  0.81032246E+00  0.18967773E+00
  0.62000000E+00  0.62000000E+00  0.11196760E+01  0.00000000E+00  0.00000000E+00  0.00000000E+00  0.10000000E+01  0.00000000E+00  0.00000000E+00  0.00000000E+00  0.10000000E+01  0.12977466E+02  0.17185078E-01 -0.34555731E-02  0.19241720E-01  0.90598565E+01  0.21345145E-03 -0.38691223E-02  0.21345149E-03  0.91010998E+01  0.12977466E+02  0.80914983E+01  0.81283333E+01  0.17185078E-01  0.19063680E-03 -0.34555731E-02  0.48677499E+01  0.75359577E-01  0.97324327E+01  0.19993699E+01  0.98746347E+00  0.80914367E+01  0.81283320E+01  0.12977529E+02 -0.16409960E+01 -0.16041007E+01  0.32450967E+01  0.26088883E-01  0.39744155E+01  0.34549892E+01 -0.19646141E+01 -0.26088883E-01  0.39744155E+01  0.34289003E+01 -0.20098014E+01 -0.34289003E+01 -0.20098014E+01 -0.34549892E+01 -0.19646141E+01  0.22250000E+07 -0.20431859E-06  0.81056423E+00  0.18943598E+00
  0.63000000E+00  0.63000000E+00  0.11217193E+01  0.00000000E+00  0.00000000E+00  0.00000000E+00  0.10000000E+01  0.00000000E+00  0.00000000E+00  0.00000000E+00  0.10000000E+01  0.13106409E+02  0.17160904E-01 -0.33889328E-02  0.19249717E-01  0.92298172E+01  0.17481142E-03 -0.38014313E-02  0.17481147E-03  0.92713060E+01  0.13106409E+02  0.82282772E+01  0.82652640E+01  0.17160904E-01  0.15584240E-03 -0.33889328E-02  0.48598384E+01  0.76575054E-01  0.98666501E+01  0.20302424E+01  0.98739166E+00  0.82282161E+01  0.82652624E+01  0.13106472E+02 -0.16384340E+01 -0.16013877E+01  0.32398217E+01  0.26195671E-01  0.39679550E+01  0.34494476E+01 -0.19612914E+01 -0.26195671E-01  0.39679550E+01  0.34232520E+01 -0.20066636E+01 -0.34232520E+01 -0.20066636E+01 -0.34494476E+01 -0.19612914E+01  0.22818882E+07 -0.21677834E-06  0.81080601E+00  0.18919420E+00
  0.64000000E+00  0.64000000E+00  0.11237663E+01  0.00000000E+00  0.00000000E+00  0.00000000E+00  0.10000000E+01  0.00000000E+00  0.00000000E+00  0.00000000E+00  0.10000000E+01  0.13234662E+02  0.17128254E-01 -0.33212847E-02  0.19248154E-01  0.93997275E+01  0.13421738E-03 -0.37323478E-02  0.13421742E-03  0.94414574E+01  0.13234662E+02  0.83644862E+01  0.84016201E+01  0.17128254E-01  0.11943531E-03 -0.33212847E-02  0.48518091E+01  0.77790531E-01  0.10000256E+02  0.20611396E+01  0.98732084E+00  0.83644255E+01  0.84016183E+01  0.13234724E+02 -0.16358305E+01 -0.15986377E+01  0.32344681E+01  0.26299293E-01  0.39613982E+01  0.34438212E+01 -0.19579233E+01 -0.26299293E-01  0.39613982E+01  0.34175219E+01 -0.20034750E+01 -0.34175219E+01 -0.20034750E+01 -0.34438212E+01 -0.19579233E+01  0.23394568E+07 -0.22965008E-06  0.81104783E+00  0.18895240E+00
  0.65000000E+00  0.65000000E+00  0.11258170E+01  0.00000000E+00  0.00000000E+00  0.00000000E+00  0.10000000E+01  0.00000000E+00  0.00000000E+00  0.00000000E+00  0.10000000E+01  0.13362231E+02  0.17089191E-01 -0.32532122E-02  0.19239302E-01  0.95695827E+01  0.92978154E-04 -0.36625217E-02  0.92978202E-04  0.96115482E+01  0.13362231E+02  0.85001226E+01  0.85373982E+01  0.17089191E-01  0.82587270E-04 -0.32532122E-02  0.48436717E+01  0.79006008E-01  0.10133251E+02  0.20920597E+01  0.98725136E+00  0.85000623E+01  0.85373962E+01  0.13362293E+02 -0.16331882E+01 -0.15958543E+01  0.32290425E+01  0.26399054E-01  0.39547533E+01  0.34381163E+01 -0.19545144E+01 -0.26399054E-01  0.39547533E+01  0.34117173E+01 -0.20002389E+01 -0.34117173E+01 -0.20002389E+01 -0.34381163E+01 -0.19545144E+01  0.23977010E+07 -0.24292867E-06  0.81128968E+00  0.18871056E+00
  0.66000000E+00  0.66000000E+00  0.11278715E+01  0.00000000E+00  0.00000000E+00  0.00000000E+00  0.10000000E+01  0.00000000E+00  0.00000000E+00  0.00000000E+00  0.10000000E+01  0.13489123E+02  0.17042733E-01 -0.31856372E-02  0.19222013E-01  0.97393798E+01  0.51236433E-04 -0.35929894E-02  0.51236475E-04  0.97815735E+01  0.13489123E+02  0.86351857E+01  0.86725957E+01  0.17042733E-01  0.45427545E-04 -0.31856372E-02  0.48354344E+01  0.80221485E-01  0.10265635E+02  0.21230016E+01  0.98718381E+00  0.86351258E+01  0.86725937E+01  0.13489185E+02 -0.16305091E+01 -0.15930412E+01  0.32235503E+01  0.26493801E-01  0.39480267E+01  0.34323383E+01 -0.19510691E+01 -0.26493801E-01  0.39480267E+01  0.34058445E+01 -0.19969577E+01 -0.34058445E+01 -0.19969577E+01 -0.34323383E+01 -0.19510691E+01  0.24566159E+07 -0.25660799E-06  0.81153157E+00  0.18846869E+00
  0.67000000E+00  0.67000000E+00  0.11299297E+01  0.00000000E+00  0.00000000E+00  0.00000000E+00  0.10000000E+01  0.00000000E+00  0.00000000E+00  0.00000000E+00  0.10000000E+01  0.13615345E+02  0.16989290E-01 -0.31193806E-02  0.19196704E-01  0.99091155E+01  0.91304154E-05 -0.35246809E-02  0.91304583E-05  0.99515301E+01  0.13615345E+02  0.87696741E+01  0.88072115E+01  0.16989290E-01  0.80805161E-05 -0.31193806E-02  0.48271039E+01  0.81436962E-01  0.10397410E+02  0.21539644E+01  0.98711815E+00  0.87696145E+01  0.88072095E+01  0.13615406E+02 -0.16277955E+01 -0.15902006E+01  0.32179961E+01  0.26583655E-01  0.39412242E+01  0.34264921E+01 -0.19475900E+01 -0.26583655E-01  0.39412242E+01  0.33999085E+01 -0.19936342E+01 -0.33999085E+01 -0.19936342E+01 -0.34264921E+01 -0.19475900E+01  0.25161964E+07 -0.27068040E-06  0.81177350E+00  0.18822677E+00
  0.68000000E+00  0.68000000E+00  0.11319917E+01  0.00000000E+00  0.00000000E+00  0.00000000E+00  0.10000000E+01  0.00000000E+00  0.00000000E+00  0.00000000E+00  0.10000000E+01  0.13740900E+02  0.16930039E-01 -0.30537527E-02  0.19164664E-01  0.10078786E+02 -0.33289265E-04 -0.34568228E-02 -0.33289216E-04  0.10121418E+02  0.13740900E+02  0.89035863E+01  0.89412471E+01  0.16930039E-01 -0.29407693E-04 -0.30537527E-02  0.48186857E+01  0.82652439E-01  0.10528578E+02  0.21849480E+01  0.98705338E+00  0.89035270E+01  0.89412451E+01  0.13740961E+02 -0.16250507E+01 -0.15873326E+01  0.32123833E+01  0.26670721E-01  0.39343500E+01  0.34205824E+01 -0.19440775E+01 -0.26670721E-01  0.39343500E+01  0.33939117E+01 -0.19902725E+01 -0.33939117E+01 -0.19902725E+01 -0.34205824E+01 -0.19440775E+01  0.25764374E+07 -0.28513881E-06  0.81201548E+00  0.18798480E+00
  0.69000000E+00  0.69000000E+00  0.11340575E+01  0.00000000E+00  0.00000000E+00  0.00000000E+00  0.10000000E+01  0.00000000E+00  0.00000000E+00  0.00000000E+00  0.10000000E+01  0.13865795E+02  0.16866140E-01 -0.29898474E-02  0.19127172E-01  0.10248389E+02 -0.75740394E-04 -0.33906587E-02 -0.75740396E-04  0.10291230E+02  0.13865795E+02  0.90369223E+01  0.90746986E+01  0.16866140E-01 -0.66787087E-04 -0.29898474E-02  0.48101873E+01  0.83867916E-01  0.10659139E+02  0.22159509E+01  0.98699083E+00  0.90368634E+01  0.90746968E+01  0.13865856E+02 -0.16222753E+01 -0.15844418E+01  0.32067171E+01  0.26752299E-01  0.39274104E+01  0.34146133E+01 -0.19405370E+01 -0.26752299E-01  0.39274104E+01  0.33878610E+01 -0.19868734E+01 -0.33878610E+01 -0.19868734E+01 -0.34146133E+01 -0.19405370E+01  0.26373340E+07 -0.29997445E-06  0.81225751E+00  0.18774279E+00
  0.70000000E+00  0.70000000E+00  0.11361270E+01  0.00000000E+00  0.00000000E+00  0.00000000E+00  0.10000000E+01  0.00000000E+00  0.00000000E+00  0.00000000E+00  0.10000000E+01  0.13990035E+02  0.16799080E-01 -0.29281261E-02  0.19085888E-01  0.10417923E+02 -0.11768410E-03 -0.33267230E-02 -0.11768410E-03  0.10460963E+02  0.13990035E+02  0.91696820E+01  0.92075651E+01  0.16799080E-01 -0.10358358E-03 -0.29281261E-02  0.48016145E+01  0.85083393E-01  0.10789094E+02  0.22469722E+01  0.98693080E+00  0.91696233E+01  0.92075636E+01  0.13990095E+02 -0.16194709E+01 -0.15815305E+01  0.32010014E+01  0.26827856E-01  0.39204100E+01  0.34085886E+01 -0.19369714E+01 -0.26827856E-01  0.39204100E+01  0.33817608E+01 -0.19834386E+01 -0.33817608E+01 -0.19834386E+01 -0.34085886E+01 -0.19369714E+01  0.26988812E+07 -0.31517741E-06  0.81249959E+00  0.18750073E+00
  0.71000000E+00  0.71000000E+00  0.11382003E+01  0.00000000E+00  0.00000000E+00  0.00000000E+00  0.10000000E+01  0.00000000E+00  0.00000000E+00  0.00000000E+00  0.10000000E+01  0.14113624E+02  0.16728002E-01 -0.28686640E-02  0.19039817E-01  0.10587385E+02 -0.15938571E-03 -0.32651141E-02 -0.15938565E-03  0.10630615E+02  0.14113624E+02  0.93018648E+01  0.93398459E+01  0.16728002E-01 -0.14003310E-03 -0.28686640E-02  0.47929721E+01  0.86298870E-01  0.10918445E+02  0.22780114E+01  0.98687338E+00  0.93018062E+01  0.93398446E+01  0.14113684E+02 -0.16166388E+01 -0.15786004E+01  0.31952393E+01  0.26897225E-01  0.39133529E+01  0.34025116E+01 -0.19333828E+01 -0.26897225E-01  0.39133529E+01  0.33756144E+01 -0.19799701E+01 -0.33756144E+01 -0.19799701E+01 -0.34025116E+01 -0.19333828E+01  0.27610736E+07 -0.33073717E-06  0.81274172E+00  0.18725861E+00
  0.72000000E+00  0.72000000E+00  0.11402773E+01  0.00000000E+00  0.00000000E+00  0.00000000E+00  0.10000000E+01  0.00000000E+00  0.00000000E+00  0.00000000E+00  0.10000000E+01  0.14236568E+02  0.16653351E-01 -0.28109271E-02  0.18989439E-01  0.10756773E+02 -0.20012880E-03 -0.32052365E-02 -0.20012876E-03  0.10800184E+02  0.14236568E+02  0.94334708E+01  0.94715409E+01  0.16653351E-01 -0.17550888E-03 -0.28109271E-02  0.47842651E+01  0.87514347E-01  0.11047193E+02  0.23090679E+01  0.98681863E+00  0.94334123E+01  0.94715400E+01  0.14236627E+02 -0.16137809E+01 -0.15756532E+01  0.31894341E+01  0.26960346E-01  0.39062431E+01  0.33963859E+01 -0.19297732E+01 -0.26960346E-01  0.39062431E+01  0.33694255E+01 -0.19764699E+01 -0.33694255E+01 -0.19764699E+01 -0.33963859E+01 -0.19297732E+01  0.28239064E+07 -0.34664177E-06  0.81298391E+00  0.18701644E+00
  0.73000000E+00  0.73000000E+00  0.11423582E+01  0.00000000E+00  0.00000000E+00  0.00000000E+00  0.10000000E+01  0.00000000E+00  0.00000000E+00  0.00000000E+00  0.10000000E+01  0.14358870E+02  0.16576289E-01 -0.27552733E-02  0.18936060E-01  0.10926085E+02 -0.23938747E-03 -0.31475091E-02 -0.23938742E-03  0.10969667E+02  0.14358870E+02  0.95644999E+01  0.96026507E+01  0.16576289E-01 -0.20955552E-03 -0.27552733E-02  0.47754977E+01  0.88729824E-01  0.11175340E+02  0.23401415E+01  0.98676640E+00  0.95644416E+01  0.96026502E+01  0.14358929E+02 -0.16108986E+01 -0.15726901E+01  0.31835887E+01  0.27017559E-01  0.38990839E+01  0.33902145E+01 -0.19261441E+01 -0.27017559E-01  0.38990839E+01  0.33631970E+01 -0.19729399E+01 -0.33631970E+01 -0.19729399E+01 -0.33902145E+01 -0.19261441E+01  0.28873746E+07 -0.36287913E-06  0.81322615E+00  0.18677421E+00
  0.74000000E+00  0.74000000E+00  0.11444429E+01  0.00000000E+00  0.00000000E+00  0.00000000E+00  0.10000000E+01  0.00000000E+00  0.00000000E+00  0.00000000E+00  0.10000000E+01  0.14480535E+02  0.16497377E-01 -0.27014936E-02  0.18880306E-01  0.11095319E+02 -0.27743307E-03 -0.30917051E-02 -0.27743308E-03  0.11139063E+02  0.14480535E+02  0.96949524E+01  0.97331752E+01  0.16497377E-01 -0.24241758E-03 -0.27014936E-02  0.47666740E+01  0.89945301E-01  0.11302888E+02  0.23712315E+01  0.98671680E+00  0.96948941E+01  0.97331751E+01  0.14480593E+02 -0.16079934E+01 -0.15697124E+01  0.31777058E+01  0.27068723E-01  0.38918789E+01  0.33840003E+01 -0.19224972E+01 -0.27068723E-01  0.38918789E+01  0.33569316E+01 -0.19693816E+01 -0.33569316E+01 -0.19693816E+01 -0.33840003E+01 -0.19224972E+01  0.29514729E+07 -0.37943539E-06  0.81346845E+00  0.18653193E+00
  0.75000000E+00  0.75000000E+00  0.11465314E+01  0.00000000E+00  0.00000000E+00  0.00000000E+00  0.10000000E+01  0.00000000E+00  0.00000000E+00  0.00000000E+00  0.10000000E+01  0.14601567E+02  0.16416559E-01 -0.26494632E-02  0.18822100E-01  0.11264475E+02 -0.31420863E-03 -0.30376926E-02 -0.31420857E-03  0.11308370E+02  0.14601567E+02  0.98248291E+01  0.98631148E+01  0.16416559E-01 -0.27405150E-03 -0.26494632E-02  0.47577977E+01  0.91160778E-01  0.11429837E+02  0.24023377E+01  0.98666997E+00  0.98247708E+01  0.98631152E+01  0.14601625E+02 -0.16050661E+01 -0.15667218E+01  0.31717879E+01  0.27113558E-01  0.38846309E+01  0.33777459E+01 -0.19188344E+01 -0.27113558E-01  0.38846309E+01  0.33506323E+01 -0.19657965E+01 -0.33506323E+01 -0.19657965E+01 -0.33777459E+01 -0.19188344E+01  0.30161963E+07 -0.39629557E-06  0.81371081E+00  0.18628959E+00
  0.76000000E+00  0.76000000E+00  0.11486236E+01  0.00000000E+00  0.00000000E+00  0.00000000E+00  0.10000000E+01  0.00000000E+00  0.00000000E+00  0.00000000E+00  0.10000000E+01  0.14721970E+02  0.16333030E-01 -0.25990638E-02  0.18760504E-01  0.11433549E+02 -0.34922608E-03 -0.29853461E-02 -0.34922601E-03  0.11477588E+02  0.14721970E+02  0.99541297E+01  0.99924703E+01  0.16333030E-01 -0.30403873E-03 -0.25990638E-02  0.47488724E+01  0.92376255E-01  0.11556190E+02  0.24334598E+01  0.98662567E+00  0.99540715E+01  0.99924711E+01  0.14722027E+02 -0.16021185E+01 -0.15637188E+01  0.31658373E+01  0.27152638E-01  0.38773430E+01  0.33714538E+01 -0.19151566E+01 -0.27152638E-01  0.38773430E+01  0.33443012E+01 -0.19621864E+01 -0.33443012E+01 -0.19621864E+01 -0.33714538E+01 -0.19151566E+01  0.30815397E+07 -0.41344440E-06  0.81395322E+00  0.18604719E+00
  0.77000000E+00  0.77000000E+00  0.11507197E+01  0.00000000E+00  0.00000000E+00  0.00000000E+00  0.10000000E+01  0.00000000E+00  0.00000000E+00  0.00000000E+00  0.10000000E+01  0.14841748E+02  0.16247633E-01 -0.25508930E-02  0.18696472E-01  0.11602540E+02 -0.38286765E-03 -0.29353630E-02 -0.38286759E-03  0.11646713E+02  0.14841748E+02  0.10082855E+02  0.10121242E+02  0.16247633E-01 -0.33272015E-03 -0.25508930E-02  0.47399014E+01  0.93591732E-01  0.11681948E+02  0.24645973E+01  0.98658405E+00  0.10082797E+02  0.10121243E+02  0.14841804E+02 -0.15991513E+01 -0.15607050E+01  0.31598563E+01  0.27185680E-01  0.38700178E+01  0.33651266E+01 -0.19114654E+01 -0.27185680E-01  0.38700178E+01  0.33379409E+01 -0.19585524E+01 -0.33379409E+01 -0.19585524E+01 -0.33651266E+01 -0.19114654E+01  0.31474981E+07 -0.43086586E-06  0.81419569E+00  0.18580474E+00
  0.78000000E+00  0.78000000E+00  0.11528197E+01  0.00000000E+00  0.00000000E+00  0.00000000E+00  0.10000000E+01  0.00000000E+00  0.00000000E+00  0.00000000E+00  0.10000000E+01  0.14960904E+02  0.16161217E-01 -0.25057534E-02  0.18630968E-01  0.11771448E+02 -0.41462408E-03 -0.28886818E-02 -0.41462410E-03  0.11815744E+02  0.14960904E+02  0.10211006E+02  0.10249430E+02  0.16161217E-01 -0.35966083E-03 -0.25057534E-02  0.47308881E+01  0.94807210E-01  0.11807113E+02  0.24957498E+01  0.98654529E+00  0.10210948E+02  0.10249432E+02  0.14960960E+02 -0.15961656E+01 -0.15576815E+01  0.31538472E+01  0.27212368E-01  0.38626581E+01  0.33587662E+01 -0.19077625E+01 -0.27212368E-01  0.38626581E+01  0.33315539E+01 -0.19548957E+01 -0.33315539E+01 -0.19548957E+01 -0.33587662E+01 -0.19077625E+01  0.32140665E+07 -0.44854345E-06  0.81443822E+00  0.18556223E+00
  0.79000000E+00  0.79000000E+00  0.11549234E+01  0.00000000E+00  0.00000000E+00  0.00000000E+00  0.10000000E+01  0.00000000E+00  0.00000000E+00  0.00000000E+00  0.10000000E+01  0.15079443E+02  0.16073455E-01 -0.24630534E-02  0.18563610E-01  0.11940271E+02 -0.44501870E-03 -0.28446380E-02 -0.44501864E-03  0.11984681E+02  0.15079443E+02  0.10338582E+02  0.10377036E+02  0.16073455E-01 -0.38532312E-03 -0.24630534E-02  0.47218353E+01  0.96022687E-01  0.11931687E+02  0.25269172E+01  0.98650905E+00  0.10338524E+02  0.10377038E+02  0.15079499E+02 -0.15931628E+01 -0.15546489E+01  0.31478117E+01  0.27233453E-01  0.38552662E+01  0.33523752E+01 -0.19040482E+01 -0.27233453E-01  0.38552662E+01  0.33251417E+01 -0.19512180E+01 -0.33251417E+01 -0.19512180E+01 -0.33523752E+01 -0.19040482E+01  0.32812396E+07 -0.46645754E-06  0.81468081E+00  0.18531966E+00
  0.80000000E+00  0.80000000E+00  0.11570310E+01  0.00000000E+00  0.00000000E+00  0.00000000E+00  0.10000000E+01  0.00000000E+00  0.00000000E+00  0.00000000E+00  0.10000000E+01  0.15197368E+02  0.15984179E-01 -0.24226997E-02  0.18494191E-01  0.12109007E+02 -0.47421322E-03 -0.28031386E-02 -0.47421317E-03  0.12153523E+02  0.15197368E+02  0.10465586E+02  0.10504060E+02  0.15984179E-01 -0.40985352E-03 -0.24226997E-02  0.47127459E+01  0.97238164E-01  0.12055671E+02  0.25580991E+01  0.98647542E+00  0.10465527E+02  0.10504063E+02  0.15197423E+02 -0.15901437E+01 -0.15516081E+01  0.31417518E+01  0.27248788E-01  0.38478444E+01  0.33459554E+01 -0.19003241E+01 -0.27248788E-01  0.38478444E+01  0.33187066E+01 -0.19475204E+01 -0.33187066E+01 -0.19475204E+01 -0.33459554E+01 -0.19003241E+01  0.33490128E+07 -0.48458909E-06  0.81492345E+00  0.18507703E+00
  0.81000000E+00  0.81000000E+00  0.11591424E+01  0.00000000E+00  0.00000000E+00  0.00000000E+00  0.10000000E+01  0.00000000E+00  0.00000000E+00  0.00000000E+00  0.10000000E+01  0.15314682E+02  0.15893703E-01 -0.23846342E-02  0.18423066E-01  0.12277655E+02 -0.50208052E-03 -0.27641307E-02 -0.50208047E-03  0.12322268E+02  0.15314682E+02  0.10592016E+02  0.10630503E+02  0.15893703E-01 -0.43314825E-03 -0.23846342E-02  0.47036227E+01  0.98453641E-01  0.12179067E+02  0.25892951E+01  0.98644443E+00  0.10591958E+02  0.10630507E+02  0.15314737E+02 -0.15871093E+01 -0.15485602E+01  0.31356695E+01  0.27258363E-01  0.38403951E+01  0.33395089E+01 -0.18965911E+01 -0.27258363E-01  0.38403951E+01  0.33122506E+01 -0.19438040E+01 -0.33122506E+01 -0.19438040E+01 -0.33395089E+01 -0.18965911E+01  0.34173807E+07 -0.50291854E-06  0.81516615E+00  0.18483435E+00
  0.82000000E+00  0.82000000E+00  0.11612577E+01  0.00000000E+00  0.00000000E+00  0.00000000E+00  0.10000000E+01  0.00000000E+00  0.00000000E+00  0.00000000E+00  0.10000000E+01  0.15431388E+02  0.15802201E-01 -0.23494254E-02  0.18350429E-01  0.12446214E+02 -0.52868426E-03 -0.27282884E-02 -0.52868420E-03  0.12490914E+02  0.15431388E+02  0.10717874E+02  0.10756367E+02  0.15802201E-01 -0.45526866E-03 -0.23494254E-02  0.46944678E+01  0.99669118E-01  0.12301876E+02  0.26205050E+01  0.98641585E+00  0.10717816E+02  0.10756371E+02  0.15431442E+02 -0.15840606E+01 -0.15455054E+01  0.31295661E+01  0.27262662E-01  0.38329200E+01  0.33330374E+01 -0.18928498E+01 -0.27262662E-01  0.38329200E+01  0.33057748E+01 -0.19400702E+01 -0.33057748E+01 -0.19400702E+01 -0.33330374E+01 -0.18928498E+01  0.34863379E+07 -0.52142407E-06  0.81540891E+00  0.18459161E+00
  0.83000000E+00  0.83000000E+00  0.11633769E+01  0.00000000E+00  0.00000000E+00  0.00000000E+00  0.10000000E+01  0.00000000E+00  0.00000000E+00  0.00000000E+00  0.10000000E+01  0.15547491E+02  0.15709605E-01 -0.23172397E-02  0.18276191E-01  0.12614683E+02 -0.55393076E-03 -0.26958231E-02 -0.55393072E-03  0.12659462E+02  0.15547491E+02  0.10843161E+02  0.10881652E+02  0.15709605E-01 -0.47614042E-03 -0.23172397E-02  0.46852838E+01  0.10088459E+00  0.12424101E+02  0.26517286E+01  0.98638975E+00  0.10843103E+02  0.10881656E+02  0.15547544E+02 -0.15809985E+01 -0.15424447E+01  0.31234432E+01  0.27261606E-01  0.38254211E+01  0.33265426E+01 -0.18891013E+01 -0.27261606E-01  0.38254211E+01  0.32992810E+01 -0.19363198E+01 -0.32992810E+01 -0.19363198E+01 -0.33265426E+01 -0.18891013E+01  0.35558798E+07 -0.54008282E-06  0.81565173E+00  0.18434881E+00
  0.84000000E+00  0.84000000E+00  0.11654999E+01  0.00000000E+00  0.00000000E+00  0.00000000E+00  0.10000000E+01  0.00000000E+00  0.00000000E+00  0.00000000E+00  0.10000000E+01  0.15662992E+02  0.15616208E-01 -0.22870475E-02  0.18200689E-01  0.12783059E+02 -0.57735404E-03 -0.26655536E-02 -0.57735398E-03  0.12827911E+02  0.15662992E+02  0.10967877E+02  0.11006359E+02  0.15616208E-01 -0.49537029E-03 -0.22870475E-02  0.46760729E+01  0.10210007E+00  0.12545743E+02  0.26829656E+01  0.98636575E+00  0.10967819E+02  0.11006364E+02  0.15663045E+02 -0.15779241E+01 -0.15393784E+01  0.31173025E+01  0.27255990E-01  0.38179002E+01  0.33200266E+01 -0.18853457E+01 -0.27255990E-01  0.38179002E+01  0.32927706E+01 -0.19325545E+01 -0.32927706E+01 -0.19325545E+01 -0.33200266E+01 -0.18853457E+01  0.36260014E+07 -0.55887294E-06  0.81589460E+00  0.18410596E+00
  0.85000000E+00  0.85000000E+00  0.11676268E+01  0.00000000E+00  0.00000000E+00  0.00000000E+00  0.10000000E+01  0.00000000E+00  0.00000000E+00  0.00000000E+00  0.10000000E+01  0.15777896E+02  0.15521717E-01 -0.22588966E-02  0.18123574E-01  0.12951344E+02 -0.59818006E-03 -0.26375483E-02 -0.59818000E-03  0.12996260E+02  0.15777896E+02  0.11092023E+02  0.11130491E+02  0.15521717E-01 -0.51230415E-03 -0.22588966E-02  0.46668372E+01  0.10331555E+00  0.12666804E+02  0.27142159E+01  0.98634393E+00  0.11091965E+02  0.11130497E+02  0.15777949E+02 -0.15748382E+01 -0.15363070E+01  0.31111453E+01  0.27245683E-01  0.38103592E+01  0.33134907E+01 -0.18815842E+01 -0.27245683E-01  0.38103592E+01  0.32862451E+01 -0.19287751E+01 -0.32862451E+01 -0.19287751E+01 -0.33134907E+01 -0.18815842E+01  0.36966978E+07 -0.57777062E-06  0.81613752E+00  0.18386306E+00
  0.86000000E+00  0.86000000E+00  0.11697576E+01  0.00000000E+00  0.00000000E+00  0.00000000E+00  0.10000000E+01  0.00000000E+00  0.00000000E+00  0.00000000E+00  0.10000000E+01  0.15892207E+02  0.15427270E-01 -0.22331945E-02  0.18046167E-01  0.13119536E+02 -0.61745383E-03 -0.26122963E-02 -0.61745380E-03  0.13164507E+02  0.15892207E+02  0.11215603E+02  0.11254047E+02  0.15427270E-01 -0.52784768E-03 -0.22331945E-02  0.46575788E+01  0.10453103E+00  0.12787286E+02  0.27454791E+01  0.98632474E+00  0.11215545E+02  0.11254053E+02  0.15892258E+02 -0.15717409E+01 -0.15332321E+01  0.31049730E+01  0.27229830E-01  0.38027997E+01  0.33069361E+01 -0.18778181E+01 -0.27229830E-01  0.38027997E+01  0.32797062E+01 -0.19249816E+01 -0.32797062E+01 -0.19249816E+01 -0.33069361E+01 -0.18778181E+01  0.37679643E+07 -0.59674999E-06  0.81638050E+00  0.18362010E+00
  0.87000000E+00  0.87000000E+00  0.11718923E+01  0.00000000E+00  0.00000000E+00  0.00000000E+00  0.10000000E+01  0.00000000E+00  0.00000000E+00  0.00000000E+00  0.10000000E+01  0.16005925E+02  0.15332344E-01 -0.22100337E-02  0.17967856E-01  0.13287635E+02 -0.63487767E-03 -0.25899214E-02 -0.63487760E-03  0.13332654E+02  0.16005925E+02  0.11338615E+02  0.11377030E+02  0.15332344E-01 -0.54175430E-03 -0.22100337E-02  0.46482997E+01  0.10574650E+00  0.12907190E+02  0.27767552E+01  0.98630774E+00  0.11338557E+02  0.11377037E+02  0.16005977E+02 -0.15686333E+01 -0.15301535E+01  0.30987868E+01  0.27209371E-01  0.37952232E+01  0.33003644E+01 -0.18740476E+01 -0.27209371E-01  0.37952232E+01  0.32731551E+01 -0.19211756E+01 -0.32731551E+01 -0.19211756E+01 -0.33003644E+01 -0.18740476E+01  0.38397958E+07 -0.61578582E-06  0.81662353E+00  0.18337709E+00
  0.88000000E+00  0.88000000E+00  0.11740308E+01  0.00000000E+00  0.00000000E+00  0.00000000E+00  0.10000000E+01  0.00000000E+00  0.00000000E+00  0.00000000E+00  0.10000000E+01  0.16119056E+02  0.15237753E-01 -0.21887399E-02  0.17889592E-01  0.13455638E+02 -0.64998318E-03 -0.25696481E-02 -0.64998315E-03  0.13500697E+02  0.16119056E+02  0.11461060E+02  0.11499440E+02  0.15237753E-01 -0.55363383E-03 -0.21887399E-02  0.46390016E+01  0.10696198E+00  0.13026519E+02  0.28080437E+01  0.98629291E+00  0.11461003E+02  0.11499447E+02  0.16119107E+02 -0.15655163E+01 -0.15270718E+01  0.30925881E+01  0.27184362E-01  0.37876314E+01  0.32937772E+01 -0.18702733E+01 -0.27184362E-01  0.37876314E+01  0.32665928E+01 -0.19173580E+01 -0.32665928E+01 -0.19173580E+01 -0.32937772E+01 -0.18702733E+01  0.39121874E+07 -0.63485126E-06  0.81686661E+00  0.18313403E+00
  0.89000000E+00  0.89000000E+00  0.11761733E+01  0.00000000E+00  0.00000000E+00  0.00000000E+00  0.10000000E+01  0.00000000E+00  0.00000000E+00  0.00000000E+00  0.10000000E+01  0.16231602E+02  0.15143450E-01 -0.21697057E-02  0.17811322E-01  0.13623547E+02 -0.66235363E-03 -0.25519499E-02 -0.66235359E-03  0.13668638E+02  0.16231602E+02  0.11582942E+02  0.11621279E+02  0.15143450E-01 -0.56314290E-03 -0.21697057E-02  0.46296862E+01  0.10817746E+00  0.13145274E+02  0.28393445E+01  0.98628068E+00  0.11582884E+02  0.11621286E+02  0.16231652E+02 -0.15623897E+01 -0.15239882E+01  0.30863778E+01  0.27153981E-01  0.37800254E+01  0.32871750E+01 -0.18664967E+01 -0.27153981E-01  0.37800254E+01  0.32600211E+01 -0.19135288E+01 -0.32600211E+01 -0.19135288E+01 -0.32871750E+01 -0.18664967E+01  0.39851343E+07 -0.65391858E-06  0.81710974E+00  0.18289091E+00
  0.90000000E+00  0.90000000E+00  0.11783197E+01  0.00000000E+00  0.00000000E+00  0.00000000E+00  0.10000000E+01  0.00000000E+00  0.00000000E+00  0.00000000E+00  0.10000000E+01  0.16343565E+02  0.15049738E-01 -0.21526837E-02  0.17733402E-01  0.13791360E+02 -0.67252092E-03 -0.25365495E-02 -0.67252089E-03  0.13836475E+02  0.16343565E+02  0.11704260E+02  0.11742548E+02  0.15049738E-01 -0.57074574E-03 -0.21526837E-02  0.46203553E+01  0.10939293E+00  0.13263458E+02  0.28706575E+01  0.98627065E+00  0.11704203E+02  0.11742555E+02  0.16343615E+02 -0.15592547E+01 -0.15209026E+01  0.30801573E+01  0.27119053E-01  0.37724069E+01  0.32805597E+01 -0.18627176E+01 -0.27119053E-01  0.37724069E+01  0.32534407E+01 -0.19096892E+01 -0.32534407E+01 -0.19096892E+01 -0.32805597E+01 -0.18627176E+01  0.40586319E+07 -0.67295917E-06  0.81735292E+00  0.18264775E+00
  0.91000000E+00  0.91000000E+00  0.11804699E+01  0.00000000E+00  0.00000000E+00  0.00000000E+00  0.10000000E+01  0.00000000E+00  0.00000000E+00  0.00000000E+00  0.10000000E+01  0.16454950E+02  0.14956724E-01 -0.21374792E-02  0.17655963E-01  0.13959076E+02 -0.68036945E-03 -0.25232299E-02 -0.68036938E-03  0.14004208E+02  0.16454950E+02  0.11825016E+02  0.11863249E+02  0.14956724E-01 -0.57635474E-03 -0.21374792E-02  0.46110106E+01  0.11060841E+00  0.13381072E+02  0.29019824E+01  0.98626277E+00  0.11824960E+02  0.11863256E+02  0.16454999E+02 -0.15561120E+01 -0.15178155E+01  0.30739275E+01  0.27079749E-01  0.37647770E+01  0.32739324E+01 -0.18589367E+01 -0.27079749E-01  0.37647770E+01  0.32468526E+01 -0.19058402E+01 -0.32468526E+01 -0.19058402E+01 -0.32739324E+01 -0.18589367E+01  0.41326755E+07 -0.69194301E-06  0.81759614E+00  0.18240455E+00
  0.92000000E+00  0.92000000E+00  0.11826242E+01  0.00000000E+00  0.00000000E+00  0.00000000E+00  0.10000000E+01  0.00000000E+00  0.00000000E+00  0.00000000E+00  0.10000000E+01  0.16565758E+02  0.14864686E-01 -0.21240601E-02  0.17579336E-01  0.14126696E+02 -0.68592039E-03 -0.25119648E-02 -0.68592032E-03  0.14171838E+02  0.16565758E+02  0.11945212E+02  0.11983383E+02  0.14864686E-01 -0.57999863E-03 -0.21240601E-02  0.46016533E+01  0.11182389E+00  0.13498118E+02  0.29333192E+01  0.98625698E+00  0.11945156E+02  0.11983391E+02  0.16565807E+02 -0.15529622E+01 -0.15147272E+01  0.30676894E+01  0.27036185E-01  0.37571369E+01  0.32672941E+01 -0.18551544E+01 -0.27036185E-01  0.37571369E+01  0.32402579E+01 -0.19019825E+01 -0.32402579E+01 -0.19019825E+01 -0.32672941E+01 -0.18551544E+01  0.42072603E+07 -0.71083937E-06  0.81783941E+00  0.18216130E+00
  0.93000000E+00  0.93000000E+00  0.11847823E+01  0.00000000E+00  0.00000000E+00  0.00000000E+00  0.10000000E+01  0.00000000E+00  0.00000000E+00  0.00000000E+00  0.10000000E+01  0.16675993E+02  0.14773010E-01 -0.21123232E-02  0.17502801E-01  0.14294219E+02 -0.68930934E-03 -0.25026432E-02 -0.68930926E-03  0.14339363E+02  0.16675993E+02  0.12064848E+02  0.12102952E+02  0.14773010E-01 -0.58180253E-03 -0.21123232E-02  0.45922849E+01  0.11303937E+00  0.13614598E+02  0.29646675E+01  0.98625326E+00  0.12064792E+02  0.12102959E+02  0.16676042E+02 -0.15498057E+01 -0.15116383E+01  0.30614440E+01  0.26988432E-01  0.37494878E+01  0.32606459E+01 -0.18513712E+01 -0.26988432E-01  0.37494878E+01  0.32336575E+01 -0.18981166E+01 -0.32336575E+01 -0.18981166E+01 -0.32606459E+01 -0.18513712E+01  0.42823813E+07 -0.72961556E-06  0.81808272E+00  0.18191801E+00
  0.94000000E+00  0.94000000E+00  0.11869444E+01  0.00000000E+00  0.00000000E+00  0.00000000E+00  0.10000000E+01  0.00000000E+00  0.00000000E+00  0.00000000E+00  0.10000000E+01  0.16785658E+02  0.14681472E-01 -0.21021148E-02  0.17426091E-01  0.14461643E+02 -0.69061398E-03 -0.24950934E-02 -0.69061390E-03  0.14506783E+02  0.16785658E+02  0.12183926E+02  0.12221956E+02  0.14681472E-01 -0.58184190E-03 -0.21021148E-02  0.45829068E+01  0.11425484E+00  0.13730513E+02  0.29960272E+01  0.98625185E+00  0.12183871E+02  0.12221964E+02  0.16785705E+02 -0.15466427E+01 -0.15085493E+01  0.30551921E+01  0.26936092E-01  0.37418308E+01  0.32539886E+01 -0.18475881E+01 -0.26936092E-01  0.37418308E+01  0.32270525E+01 -0.18942427E+01 -0.32270525E+01 -0.18942427E+01 -0.32539886E+01 -0.18475881E+01  0.43580338E+07 -0.74823910E-06  0.81832607E+00  0.18167468E+00
  0.95000000E+00  0.95000000E+00  0.11891104E+01  0.00000000E+00  0.00000000E+00  0.00000000E+00  0.10000000E+01  0.00000000E+00  0.00000000E+00  0.00000000E+00  0.10000000E+01  0.16894754E+02  0.14590111E-01 -0.20932914E-02  0.17349253E-01  0.14628969E+02 -0.69013825E-03 -0.24891551E-02 -0.69013839E-03  0.14674096E+02  0.16894754E+02  0.12302448E+02  0.12340399E+02  0.14590111E-01 -0.58038197E-03 -0.20932914E-02  0.45735202E+01  0.11547032E+00  0.13845867E+02  0.30273982E+01  0.98625253E+00  0.12302393E+02  0.12340406E+02  0.16894801E+02 -0.15434740E+01 -0.15054605E+01  0.30489345E+01  0.26879583E-01  0.37341668E+01  0.32473231E+01 -0.18438050E+01 -0.26879583E-01  0.37341668E+01  0.32204436E+01 -0.18903618E+01 -0.32204436E+01 -0.18903618E+01 -0.32473231E+01 -0.18438050E+01  0.44342130E+07 -0.76667616E-06  0.81856946E+00  0.18143130E+00
  0.96000000E+00  0.96000000E+00  0.11912804E+01  0.00000000E+00  0.00000000E+00  0.00000000E+00  0.10000000E+01  0.00000000E+00  0.00000000E+00  0.00000000E+00  0.10000000E+01  0.17003285E+02  0.14499703E-01 -0.20864591E-02  0.17273212E-01  0.14796195E+02 -0.68750919E-03 -0.24855577E-02 -0.68750913E-03  0.14841304E+02  0.17003285E+02  0.12420414E+02  0.12458280E+02  0.14499703E-01 -0.57711786E-03 -0.20864591E-02  0.45641263E+01  0.11668580E+00  0.13960659E+02  0.30587802E+01  0.98625521E+00  0.12420359E+02  0.12458287E+02  0.17003331E+02 -0.15403000E+01 -0.15023720E+01  0.30426721E+01  0.26819147E-01  0.37264970E+01  0.32406507E+01 -0.18400224E+01 -0.26819147E-01  0.37264970E+01  0.32138315E+01 -0.18864746E+01 -0.32138315E+01 -0.18864746E+01 -0.32406507E+01 -0.18400224E+01  0.45109143E+07 -0.78489117E-06  0.81881290E+00  0.18118789E+00
  0.97000000E+00  0.97000000E+00  0.11934543E+01  0.00000000E+00  0.00000000E+00  0.00000000E+00  0.10000000E+01  0.00000000E+00  0.00000000E+00  0.00000000E+00  0.10000000E+01  0.17111253E+02  0.14410378E-01 -0.20811443E-02  0.17198128E-01  0.14963323E+02 -0.68262882E-03 -0.24837506E-02 -0.68262873E-03  0.15008407E+02  0.17111253E+02  0.12537826E+02  0.12575602E+02  0.14410378E-01 -0.57197733E-03 -0.20811443E-02  0.45547264E+01  0.11790127E+00  0.14074894E+02  0.30901733E+01  0.98625969E+00  0.12537772E+02  0.12575610E+02  0.17111299E+02 -0.15371216E+01 -0.14992841E+01  0.30364057E+01  0.26755195E-01  0.37188223E+01  0.32339722E+01 -0.18362405E+01 -0.26755195E-01  0.37188223E+01  0.32072170E+01 -0.18825818E+01 -0.32072170E+01 -0.18825818E+01 -0.32339722E+01 -0.18362405E+01  0.45881333E+07 -0.80284799E-06  0.81905636E+00  0.18094444E+00
  0.98000000E+00  0.98000000E+00  0.11956323E+01  0.00000000E+00  0.00000000E+00  0.00000000E+00  0.10000000E+01  0.00000000E+00  0.00000000E+00  0.00000000E+00  0.10000000E+01  0.17218661E+02  0.14322382E-01 -0.20776535E-02  0.17124301E-01  0.15130350E+02 -0.67547277E-03 -0.24841096E-02 -0.67547275E-03  0.15175403E+02  0.17218661E+02  0.12654686E+02  0.12692367E+02  0.14322382E-01 -0.56495027E-03 -0.20776535E-02  0.45453214E+01  0.11911675E+00  0.14188571E+02  0.31215771E+01  0.98626613E+00  0.12654632E+02  0.12692374E+02  0.17218707E+02 -0.15339388E+01 -0.14961971E+01  0.30301359E+01  0.26687422E-01  0.37111434E+01  0.32272882E+01 -0.18324597E+01 -0.26687422E-01  0.37111434E+01  0.32006008E+01 -0.18786837E+01 -0.32006008E+01 -0.18786837E+01 -0.32272882E+01 -0.18324597E+01  0.46658650E+07 -0.82050886E-06  0.81929986E+00  0.18070096E+00
  0.99000000E+00  0.99000000E+00  0.11978141E+01  0.00000000E+00  0.00000000E+00  0.00000000E+00  0.10000000E+01  0.00000000E+00  0.00000000E+00  0.00000000E+00  0.10000000E+01  0.17325512E+02  0.14235373E-01 -0.20752751E-02  0.17051332E-01  0.15297277E+02 -0.66605091E-03 -0.24857939E-02 -0.66605085E-03  0.15342293E+02  0.17325512E+02  0.12770994E+02  0.12808575E+02  0.14235373E-01 -0.55605531E-03 -0.20752751E-02  0.45359126E+01  0.12033223E+00  0.14301694E+02  0.31529915E+01  0.98627446E+00  0.12770942E+02  0.12808582E+02  0.17325558E+02 -0.15307522E+01 -0.14931114E+01  0.30238636E+01  0.26616040E-01  0.37034615E+01  0.32205997E+01 -0.18286806E+01 -0.26616040E-01  0.37034615E+01  0.31939837E+01 -0.18747809E+01 -0.31939837E+01 -0.18747809E+01 -0.32205997E+01 -0.18286806E+01  0.47441049E+07 -0.83783418E-06  0.81954340E+00  0.18045744E+00
  0.10000000E+01  0.10000000E+01  0.12000000E+01  0.00000000E+00  0.00000000E+00  0.00000000E+00  0.10000000E+01  0.00000000E+00  0.00000000E+00  0.00000000E+00  0.10000000E+01  0.17431808E+02  0.14149041E-01 -0.20742101E-02  0.16978849E-01  0.15464104E+02 -0.65441463E-03 -0.24890531E-02 -0.65441477E-03  0.15509076E+02  0.17431808E+02  0.12886753E+02  0.12924230E+02  0.14149041E-01 -0.54534553E-03 -0.20742101E-02  0.45265009E+01  0.12154770E+00  0.14414264E+02  0.31844164E+01  0.98628452E+00  0.12886701E+02  0.12924237E+02  0.17431853E+02 -0.15275623E+01 -0.14900272E+01  0.30175895E+01  0.26541350E-01  0.36957772E+01  0.32139077E+01 -0.18249031E+01 -0.26541350E-01  0.36957772E+01  0.31873663E+01 -0.18708741E+01 -0.31873663E+01 -0.18708741E+01 -0.32139077E+01 -0.18249031E+01  0.48228485E+07 -0.85478462E-06  0.81978696E+00  0.18021389E+00
