            Time      LoadFactor            F_xx            F_yx            F_zx            F_xy            F_yy            F_zy            F_xz            F_yz            F_zz            P_xx            P_yx            P_zx            P_xy            P_yy            P_zy            P_xz            P_yz            P_zz        sigma_xx        sigma_yy        sigma_zz        sigma_xy        sigma_yz        sigma_xz  EftvCauchyStre     EquivStrain        Pressure     Triaxiality  LodeAngleParam     PrncStreMin     PrncStreMid     PrncStreMax  PrncDevStreMin  PrncDevStreMid  PrncDevStreMax       PiPlaneX1       PiPlaneY1       PiPlaneX2       PiPlaneY2       PiPlaneX3       PiPlaneY3       PiPlaneX4       PiPlaneY4       PiPlaneX5       PiPlaneY5       PiPlaneX6       PiPlaneY6   ElasticEnergy        Porosity      GrpVolFr_1      GrpVolFr_2
  0.00000000E+00  0.00000000E+00  0.10000000E+01  0.00000000E+00  0.00000000E+00  0.00000000E+00  0.10000000E+01  0.00000000E+00  0.00000000E+00  0.00000000E+00  0.10000000E+01  0.00000000E+00  0.00000000E+00  0.00000000E+00  0.00000000E+00  0.00000000E+00  0.00000000E+00  0.00000000E+00  0.00000000E+00  0.00000000E+00  0.00000000E+00  0.00000000E+00  0.00000000E+00  0.00000000E+00  0.00000000E+00  0.00000000E+00  0.00000000E+00  0.00000000E+00  0.00000000E+00             NaN  0.00000000E+00  0.00000000E+00  0.00000000E+00  0.00000000E+00  0.00000000E+00  0.00000000E+00  0.00000000E+00  0.00000000E+00  0.00000000E+00  0.00000000E+00  0.00000000E+00  0.00000000E+00  0.00000000E+00  0.00000000E+00  0.00000000E+00  0.00000000E+00  0.00000000E+00  0.00000000E+00  0.00000000E+00  0.00000000E+00  0.36115555E-12  0.79637500E+00  0.20362500E+00
  0.10000000E-01  0.10000000E-01  0.10018249E+01  0.00000000E+00  0.00000000E+00  0.18248786E-02  0.10000000E+01  0.00000000E+00  0.00000000E+00  0.00000000E+00  0.10000000E+01  0.31366540E+00  0.93795923E-01 -0.18522181E-03  0.94188777E-01  0.12148096E+00  0.13726339E-03 -0.18530932E-03  0.13726339E-03  0.12163793E+00  0.31383697E+00  0.12125967E+00  0.12141636E+00  0.94017207E-01  0.13701336E-03 -0.18497177E-03  0.25213831E+00  0.16079248E-02  0.18550433E+00  0.73572450E+00  0.74706075E+00  0.82971168E-01  0.12141731E+00  0.35212453E+00 -0.10253317E+00 -0.64087027E-01  0.16662019E+00  0.27185525E-01  0.20406723E+00  0.19032017E+00 -0.78490258E-01 -0.27185525E-01  0.20406723E+00  0.16313464E+00 -0.12557697E+00 -0.16313464E+00 -0.12557697E+00 -0.19032017E+00 -0.78490258E-01  0.15964209E+04 -0.56843419E-13  0.79656328E+00  0.20343672E+00
  0.20000000E-01  0.20000000E-01  0.10036531E+01  0.00000000E+00  0.00000000E+00  0.36530875E-02  0.10000000E+01  0.00000000E+00  0.00000000E+00  0.00000000E+00  0.10000000E+01  0.62581022E+00  0.18659207E+00 -0.36719733E-03  0.18816030E+00  0.24269585E+00  0.27550894E-03 -0.36753227E-03  0.27550894E-03  0.24317752E+00  0.62649508E+00  0.24181248E+00  0.24229241E+00  0.18747543E+00  0.27450614E-03 -0.36619453E-03  0.50322764E+00  0.32158485E-02  0.37019999E+00  0.73565116E+00  0.74705010E+00  0.16555875E+00  0.24229429E+00  0.70274693E+00 -0.20464124E+00 -0.12790570E+00  0.33254694E+00  0.54260220E-01  0.40728516E+00  0.37984940E+00 -0.15665185E+00 -0.54260220E-01  0.40728516E+00  0.32558918E+00 -0.25063331E+00 -0.32558918E+00 -0.25063331E+00 -0.37984940E+00 -0.15665185E+00  0.63693780E+04 -0.32951419E-12  0.79675196E+00  0.20324804E+00
  0.30000000E-01  0.30000000E-01  0.10054846E+01  0.00000000E+00  0.00000000E+00  0.54846325E-02  0.10000000E+01  0.00000000E+00  0.00000000E+00  0.00000000E+00  0.10000000E+01  0.93643787E+00  0.27839243E+00 -0.54592904E-03  0.28191377E+00  0.36364500E+00  0.41474423E-03 -0.54664854E-03  0.41474423E-03  0.36461868E+00  0.93797563E+00  0.36166142E+00  0.36262979E+00  0.28037601E+00  0.41248192E-03 -0.54366673E-03  0.75326917E+00  0.48237698E-02  0.55408895E+00  0.73557895E+00  0.74703946E+00  0.24776426E+00  0.36263261E+00  0.10518700E+01 -0.30632469E+00 -0.19145633E+00  0.49778102E+00  0.81224194E-01  0.60965476E+00  0.56858860E+00 -0.23448516E+00 -0.81224194E-01  0.60965476E+00  0.48736441E+00 -0.37516959E+00 -0.48736441E+00 -0.37516959E+00 -0.56858860E+00 -0.23448516E+00  0.14294463E+05 -0.12008172E-11  0.79694104E+00  0.20305896E+00
  0.40000000E-01  0.40000000E-01  0.10073195E+01  0.00000000E+00  0.00000000E+00  0.73195200E-02  0.10000000E+01  0.00000000E+00  0.00000000E+00  0.00000000E+00  0.10000000E+01  0.12455517E+01  0.36920098E+00 -0.72141792E-03  0.37544841E+00  0.48432873E+00  0.55497634E-03 -0.72263619E-03  0.55497634E-03  0.48596131E+00  0.12482799E+01  0.48080944E+00  0.48243015E+00  0.37272028E+00  0.55094370E-03 -0.71738528E-03  0.10022641E+01  0.64316878E-02  0.73717316E+00  0.73550790E+00  0.74702884E+00  0.32958916E+00  0.48243391E+00  0.13994964E+01 -0.40758399E+00 -0.25473925E+00  0.66232324E+00  0.10807756E+00  0.81117699E+00  0.75653866E+00 -0.31199059E+00 -0.10807756E+00  0.81117699E+00  0.64846111E+00 -0.49918641E+00 -0.64846111E+00 -0.49918641E+00 -0.75653866E+00 -0.31199059E+00  0.25347333E+05 -0.27922109E-11  0.79713052E+00  0.20286948E+00
  0.50000000E-01  0.50000000E-01  0.10091578E+01  0.00000000E+00  0.00000000E+00  0.91577558E-02  0.10000000E+01  0.00000000E+00  0.00000000E+00  0.00000000E+00  0.10000000E+01  0.15531552E+01  0.45902170E+00 -0.89366573E-03  0.46876344E+00  0.60474739E+00  0.69621218E-03 -0.89547396E-03  0.69621218E-03  0.60720532E+00  0.15574091E+01  0.59925951E+00  0.60169514E+00  0.46450957E+00  0.68989430E-03 -0.88734785E-03  0.12502136E+01  0.80396011E-02  0.91945458E+00  0.73543799E+00  0.74701823E+00  0.41103496E+00  0.60169982E+00  0.17456290E+01 -0.50841963E+00 -0.31775476E+00  0.82617438E+00  0.13482042E+00  0.10118528E+01  0.94370047E+00 -0.38916851E+00 -0.13482042E+00  0.10118528E+01  0.80888005E+00 -0.62268433E+00 -0.80888005E+00 -0.62268433E+00 -0.94370047E+00 -0.38916851E+00  0.39503715E+05 -0.54432014E-11  0.79732040E+00  0.20267960E+00
  0.60000000E-01  0.60000000E-01  0.10109993E+01  0.00000000E+00  0.00000000E+00  0.10999346E-01  0.10000000E+01  0.00000000E+00  0.00000000E+00  0.00000000E+00  0.10000000E+01  0.18592517E+01  0.54785854E+00 -0.10626734E-02  0.56185807E+00  0.72490129E+00  0.83845868E-03 -0.10651396E-02  0.83845867E-03  0.72835060E+00  0.18653646E+01  0.71701459E+00  0.72042638E+00  0.55574524E+00  0.82933652E-03 -0.10535512E-02  0.14971189E+01  0.96475087E-02  0.11009352E+01  0.73536923E+00  0.74700764E+00  0.49210312E+00  0.72043200E+00  0.20902704E+01 -0.60883206E+00 -0.38050318E+00  0.98933524E+00  0.16145290E+00  0.12116833E+01  0.11300749E+01 -0.46601932E+00 -0.16145290E+00  0.12116833E+01  0.96862204E+00 -0.74566394E+00 -0.96862204E+00 -0.74566394E+00 -0.11300749E+01 -0.46601932E+00  0.56739398E+05 -0.94637631E-11  0.79751067E+00  0.20248933E+00
  0.70000000E-01  0.70000000E-01  0.10128443E+01  0.00000000E+00  0.00000000E+00  0.12844297E-01  0.10000000E+01  0.00000000E+00  0.00000000E+00  0.00000000E+00  0.10000000E+01  0.21638446E+01  0.63571547E+00 -0.12284412E-02  0.65473153E+00  0.84479077E+00  0.98172243E-03 -0.12316102E-02  0.98172243E-03  0.84939708E+00  0.21721475E+01  0.83407763E+00  0.83862552E+00  0.64642861E+00  0.96927280E-03 -0.12159916E-02  0.17429812E+01  0.11255409E-01  0.12816169E+01  0.73530162E+00  0.74699704E+00  0.57279513E+00  0.83863206E+00  0.24334235E+01 -0.70882176E+00 -0.44298483E+00  0.11518066E+01  0.18797509E+00  0.14106692E+01  0.13156629E+01 -0.54254340E+00 -0.18797509E+00  0.14106692E+01  0.11276878E+01 -0.86812581E+00 -0.11276878E+01 -0.86812581E+00 -0.13156629E+01 -0.54254340E+00  0.77030240E+05 -0.15033308E-10  0.79770135E+00  0.20229865E+00
  0.80000000E-01  0.80000000E-01  0.10146926E+01  0.00000000E+00  0.00000000E+00  0.14692615E-01  0.10000000E+01  0.00000000E+00  0.00000000E+00  0.00000000E+00  0.10000000E+01  0.24668912E+01  0.72258273E+00 -0.13894912E-02  0.74736917E+00  0.96441676E+00  0.11272718E-02 -0.13933439E-02  0.11272718E-02  0.97034537E+00  0.24777130E+01  0.95045214E+00  0.95629489E+00  0.73654736E+00  0.11109490E-02 -0.13731684E-02  0.19877505E+01  0.12863302E-01  0.14614867E+01  0.73524655E+00  0.74698227E+00  0.65311597E+00  0.95630235E+00  0.27750417E+01 -0.80837072E+00 -0.50518434E+00  0.13135551E+01  0.21438515E+00  0.16087698E+01  0.15004281E+01 -0.61872192E+00 -0.21438515E+00  0.16087698E+01  0.12860430E+01 -0.99004789E+00 -0.12860430E+01 -0.99004789E+00 -0.15004281E+01 -0.61872192E+00  0.10034842E+06 -0.22355895E-10  0.79789251E+00  0.20210749E+00
  0.90000000E-01  0.90000000E-01  0.10165443E+01  0.00000000E+00  0.00000000E+00  0.16544306E-01  0.10000000E+01  0.00000000E+00  0.00000000E+00  0.00000000E+00  0.10000000E+01  0.27679773E+01  0.80833610E+00 -0.15186663E-02  0.83964010E+00  0.10837957E+01  0.12949622E-02 -0.15223674E-02  0.12949622E-02  0.10912067E+01  0.27816425E+01  0.10661569E+01  0.10734473E+01  0.82597492E+00  0.12738867E-02 -0.14975908E-02  0.22309533E+01  0.14471186E-01  0.16404155E+01  0.73529801E+00  0.74693466E+00  0.73311064E+00  0.10734558E+01  0.31146802E+01 -0.90730491E+00 -0.56695976E+00  0.14742647E+01  0.24066036E+00  0.18055981E+01  0.16840240E+01 -0.69438106E+00 -0.24066036E+00  0.18055981E+01  0.14433636E+01 -0.11112170E+01 -0.14433636E+01 -0.11112170E+01 -0.16840240E+01 -0.69438106E+00  0.12663121E+06 -0.31891600E-10  0.79808486E+00  0.20191514E+00
  0.10000000E+00  0.10000000E+00  0.10183994E+01  0.00000000E+00  0.00000000E+00  0.18399376E-01  0.10000000E+01  0.00000000E+00  0.00000000E+00  0.00000000E+00  0.10000000E+01  0.30665544E+01  0.89281315E+00 -0.16057040E-02  0.93137447E+00  0.12029816E+01  0.14984528E-02 -0.16076774E-02  0.14984528E-02  0.12120298E+01  0.30833815E+01  0.11812474E+01  0.11901322E+01  0.91454737E+00  0.14713803E-02 -0.15786315E-02  0.24719421E+01  0.16079059E-01  0.18182537E+01  0.73555675E+00  0.74682025E+00  0.81286302E+00  0.11901419E+01  0.34517562E+01 -0.10053907E+01 -0.62811179E+00  0.16335025E+01  0.26677646E+00  0.20006238E+01  0.18659792E+01 -0.76927670E+00 -0.26677646E+00  0.20006238E+01  0.15992028E+01 -0.12313471E+01 -0.15992028E+01 -0.12313471E+01 -0.18659792E+01 -0.76927670E+00  0.15579131E+06 -0.44460435E-10  0.79827921E+00  0.20172079E+00
  0.11000000E+00  0.11000000E+00  0.10202578E+01  0.00000000E+00  0.00000000E+00  0.20257831E-01  0.10000000E+01  0.00000000E+00  0.00000000E+00  0.00000000E+00  0.10000000E+01  0.33623582E+01  0.97594786E+00 -0.16638654E-02  0.10225001E+01  0.13220381E+01  0.17299012E-02 -0.16625277E-02  0.17299012E-02  0.13328705E+01  0.33826606E+01  0.12957882E+01  0.13064056E+01  0.10021977E+01  0.16955529E-02 -0.16295172E-02  0.27103891E+01  0.17686921E-01  0.19949515E+01  0.73603877E+00  0.74663088E+00  0.89243743E+00  0.13064168E+01  0.37860002E+01 -0.11025140E+01 -0.68853469E+00  0.17910487E+01  0.29272760E+00  0.21935777E+01  0.20460579E+01 -0.84327934E+00 -0.29272760E+00  0.21935777E+01  0.17533303E+01 -0.13502984E+01 -0.17533303E+01 -0.13502984E+01 -0.20460579E+01 -0.84327934E+00  0.18775666E+06 -0.62586158E-10  0.79847586E+00  0.20152414E+00
  0.12000000E+00  0.12000000E+00  0.10221197E+01  0.00000000E+00  0.00000000E+00  0.22119678E-01  0.10000000E+01  0.00000000E+00  0.00000000E+00  0.00000000E+00  0.10000000E+01  0.36550690E+01  0.10576071E+01 -0.17031576E-02  0.11128761E+01  0.14410249E+01  0.19793799E-02 -0.16970476E-02  0.19793799E-02  0.14537928E+01  0.36791527E+01  0.14098397E+01  0.14223313E+01  0.10887923E+01  0.19365442E-02 -0.16603218E-02  0.29458473E+01  0.19294770E-01  0.21704412E+01  0.73677996E+00  0.74636564E+00  0.97193301E+00  0.14223440E+01  0.41170466E+01 -0.11985082E+01 -0.74809722E+00  0.19466054E+01  0.31848867E+00  0.23840950E+01  0.22239312E+01 -0.91622823E+00 -0.31848867E+00  0.23840950E+01  0.19054425E+01 -0.14678668E+01 -0.19054425E+01 -0.14678668E+01 -0.22239312E+01 -0.91622823E+00  0.22243185E+06 -0.89510399E-10  0.79867518E+00  0.20132482E+00
  0.13000000E+00  0.13000000E+00  0.10239849E+01  0.00000000E+00  0.00000000E+00  0.23984922E-01  0.10000000E+01  0.00000000E+00  0.00000000E+00  0.00000000E+00  0.10000000E+01  0.39442764E+01  0.11375001E+01 -0.17239882E-02  0.12021984E+01  0.15599567E+01  0.22342447E-02 -0.17117498E-02  0.22342447E-02  0.15748843E+01  0.39724357E+01  0.15234176E+01  0.15379956E+01  0.11740391E+01  0.21819117E-02 -0.16716552E-02  0.31776291E+01  0.20902606E-01  0.23446163E+01  0.73785084E+00  0.74602277E+00  0.10515072E+01  0.15380098E+01  0.44443319E+01 -0.12931091E+01 -0.80660651E+00  0.20997156E+01  0.34400931E+00  0.25716160E+01  0.23990894E+01 -0.98788718E+00 -0.34400931E+00  0.25716160E+01  0.20550801E+01 -0.15837288E+01 -0.20550801E+01 -0.15837288E+01 -0.23990894E+01 -0.98788718E+00  0.25967507E+06 -0.12943802E-09  0.79887775E+00  0.20112225E+00
  0.14000000E+00  0.14000000E+00  0.10258536E+01  0.00000000E+00  0.00000000E+00  0.25853571E-01  0.10000000E+01  0.00000000E+00  0.00000000E+00  0.00000000E+00  0.10000000E+01  0.42292334E+01  0.12151018E+01 -0.17336142E-02  0.12899204E+01  0.16788368E+01  0.24770473E-02 -0.17143938E-02  0.24770473E-02  0.16963419E+01  0.42617420E+01  0.16365267E+01  0.16535907E+01  0.12574118E+01  0.24146207E-02 -0.16711876E-02  0.34044866E+01  0.22510426E-01  0.25172865E+01  0.73940265E+00  0.74555723E+00  0.11314214E+01  0.16536062E+01  0.47668317E+01 -0.13858651E+01 -0.86368023E+00  0.22495453E+01  0.36924043E+00  0.27551190E+01  0.25706233E+01 -0.10577879E+01 -0.36924043E+00  0.27551190E+01  0.22013829E+01 -0.16973311E+01 -0.22013829E+01 -0.16973311E+01 -0.25706233E+01 -0.10577879E+01  0.29925210E+06 -0.18772917E-09  0.79908462E+00  0.20091538E+00
  0.15000000E+00  0.15000000E+00  0.10277256E+01  0.00000000E+00  0.00000000E+00  0.27725629E-01  0.10000000E+01  0.00000000E+00  0.00000000E+00  0.00000000E+00  0.10000000E+01  0.45078310E+01  0.12890321E+01 -0.17056646E-02  0.13746172E+01  0.17978302E+01  0.26859804E-02 -0.16784847E-02  0.26859804E-02  0.18187339E+01  0.45449150E+01  0.17493290E+01  0.17696687E+01  0.13375333E+01  0.26135189E-02 -0.16332031E-02  0.36229639E+01  0.24118231E-01  0.26879709E+01  0.74192592E+00  0.74485637E+00  0.12124684E+01  0.17696851E+01  0.50817591E+01 -0.14755025E+01 -0.91828576E+00  0.23937882E+01  0.39401173E+00  0.29317799E+01  0.27360017E+01 -0.11246658E+01 -0.39401173E+00  0.29317799E+01  0.23419900E+01 -0.18071141E+01 -0.23419900E+01 -0.18071141E+01 -0.27360017E+01 -0.11246658E+01  0.34059946E+06 -0.27293279E-09  0.79929839E+00  0.20070161E+00
  0.16000000E+00  0.16000000E+00  0.10296011E+01  0.00000000E+00  0.00000000E+00  0.29601104E-01  0.10000000E+01  0.00000000E+00  0.00000000E+00  0.00000000E+00  0.10000000E+01  0.47775740E+01  0.13576082E+01 -0.15650453E-02  0.14545528E+01  0.19174256E+01  0.28625381E-02 -0.15266381E-02  0.28625381E-02  0.19427559E+01  0.48193925E+01  0.18622995E+01  0.18869016E+01  0.14127343E+01  0.27802400E-02 -0.14827471E-02  0.38288038E+01  0.25726018E-01  0.28561979E+01  0.74597656E+00  0.74390292E+00  0.12958556E+01  0.18869181E+01  0.53858199E+01 -0.15603423E+01 -0.96927972E+00  0.25296220E+01  0.41794436E+00  0.30981416E+01  0.28920415E+01 -0.11871204E+01 -0.41794436E+00  0.30981416E+01  0.24740971E+01 -0.19110212E+01 -0.24740971E+01 -0.19110212E+01 -0.28920415E+01 -0.11871204E+01  0.38296417E+06 -0.39315617E-09  0.79952162E+00  0.20047838E+00
  0.17000000E+00  0.17000000E+00  0.10314800E+01  0.00000000E+00  0.00000000E+00  0.31480001E-01  0.10000000E+01  0.00000000E+00  0.00000000E+00  0.00000000E+00  0.10000000E+01  0.50373074E+01  0.14198787E+01 -0.13089180E-02  0.15287388E+01  0.20381926E+01  0.29750814E-02 -0.12564671E-02  0.29750814E-02  0.20689938E+01  0.50839634E+01  0.19759885E+01  0.20058496E+01  0.14820828E+01  0.28842842E-02 -0.12181207E-02  0.40196182E+01  0.27333787E-01  0.30219338E+01  0.75179624E+00  0.74273450E+00  0.13825323E+01  0.20058654E+01  0.56774038E+01 -0.16394015E+01 -0.10160685E+01  0.26554700E+01  0.44076303E+00  0.32522733E+01  0.30369328E+01 -0.12444246E+01 -0.44076303E+00  0.32522733E+01  0.25961697E+01 -0.20078486E+01 -0.25961697E+01 -0.20078486E+01 -0.30369328E+01 -0.12444246E+01  0.42578809E+06 -0.55769545E-09  0.79975452E+00  0.20024549E+00
  0.18000000E+00  0.18000000E+00  0.10333623E+01  0.00000000E+00  0.00000000E+00  0.33362326E-01  0.10000000E+01  0.00000000E+00  0.00000000E+00  0.00000000E+00  0.10000000E+01  0.52864535E+01  0.14753756E+01 -0.90597287E-03  0.15966849E+01  0.21607406E+01  0.30720444E-02 -0.83370769E-03  0.30720444E-02  0.21980013E+01  0.53380028E+01  0.20909806E+01  0.21270383E+01  0.15451356E+01  0.29728628E-02 -0.80679125E-03  0.41940117E+01  0.28941537E-01  0.31853406E+01  0.75949730E+00  0.74135928E+00  0.14732205E+01  0.21270526E+01  0.59557486E+01 -0.17121201E+01 -0.10582880E+01  0.27704081E+01  0.46232912E+00  0.33930431E+01  0.31696260E+01 -0.12961328E+01 -0.46232912E+00  0.33930431E+01  0.27072969E+01 -0.20969103E+01 -0.27072969E+01 -0.20969103E+01 -0.31696260E+01 -0.12961328E+01  0.46863678E+06 -0.77385920E-09  0.79999622E+00  0.20000378E+00
  0.19000000E+00  0.19000000E+00  0.10352481E+01  0.00000000E+00  0.00000000E+00  0.35248087E-01  0.10000000E+01  0.00000000E+00  0.00000000E+00  0.00000000E+00  0.10000000E+01  0.55251880E+01  0.15238988E+01 -0.37552290E-03  0.16581800E+01  0.22857045E+01  0.32278222E-02 -0.27498481E-03  0.32278222E-02  0.23300093E+01  0.55816456E+01  0.22078809E+01  0.22506772E+01  0.16017224E+01  0.31179214E-02 -0.26562213E-03  0.43515869E+01  0.30549266E-01  0.33467346E+01  0.76908371E+00  0.73993348E+00  0.15685759E+01  0.22506901E+01  0.62209377E+01 -0.17781587E+01 -0.10960445E+01  0.28742031E+01  0.48232760E+00  0.35201656E+01  0.32897166E+01 -0.13423748E+01 -0.48232760E+00  0.35201656E+01  0.28073890E+01 -0.21777907E+01 -0.28073890E+01 -0.21777907E+01 -0.32897166E+01 -0.13423748E+01  0.51121409E+06 -0.10468704E-08  0.80024507E+00  0.19975493E+00
  0.20000000E+00  0.20000000E+00  0.10371373E+01  0.00000000E+00  0.00000000E+00  0.37137289E-01  0.10000000E+01  0.00000000E+00  0.00000000E+00  0.00000000E+00  0.10000000E+01  0.57543585E+01  0.15657330E+01  0.15352598E-03  0.17135076E+01  0.24134090E+01  0.34375812E-02  0.28688997E-03  0.34375812E-02  0.24650053E+01  0.58157150E+01  0.23269909E+01  0.23767397E+01  0.16521511E+01  0.33144900E-02  0.27661715E-03  0.44932120E+01  0.32156973E-01  0.35064818E+01  0.78039537E+00  0.73856628E+00  0.16687580E+01  0.23767516E+01  0.64739359E+01 -0.18377238E+01 -0.11297302E+01  0.29674540E+01  0.50062711E+00  0.36343741E+01  0.33977739E+01 -0.13836313E+01 -0.50062711E+00  0.36343741E+01  0.28971468E+01 -0.22507429E+01 -0.28971468E+01 -0.22507429E+01 -0.33977739E+01 -0.13836313E+01  0.55342596E+06 -0.13828716E-08  0.80049909E+00  0.19950091E+00
  0.21000000E+00  0.21000000E+00  0.10390299E+01  0.00000000E+00  0.00000000E+00  0.39029939E-01  0.10000000E+01  0.00000000E+00  0.00000000E+00  0.00000000E+00  0.10000000E+01  0.59744512E+01  0.16008098E+01  0.57030533E-03  0.17625922E+01  0.25442737E+01  0.36931696E-02  0.73670850E-03  0.36931696E-02  0.26029984E+01  0.60406609E+01  0.24487010E+01  0.25052198E+01  0.16963825E+01  0.35544400E-02  0.70903491E-03  0.46190407E+01  0.33764658E-01  0.36648606E+01  0.79342461E+00  0.73740235E+00  0.17741911E+01  0.25052315E+01  0.67151591E+01 -0.18906694E+01 -0.11596291E+01  0.30502985E+01  0.51692361E+00  0.37358374E+01  0.34937919E+01 -0.14202497E+01 -0.51692361E+00  0.37358374E+01  0.29768683E+01 -0.23155877E+01 -0.29768683E+01 -0.23155877E+01 -0.34937919E+01 -0.14202497E+01  0.59506476E+06 -0.17863333E-08  0.80075680E+00  0.19924320E+00
  0.22000000E+00  0.22000000E+00  0.10409260E+01  0.00000000E+00  0.00000000E+00  0.40926043E-01  0.10000000E+01  0.00000000E+00  0.00000000E+00  0.00000000E+00  0.10000000E+01  0.61857182E+01  0.16288845E+01  0.80209940E-03  0.18051845E+01  0.26788861E+01  0.40540214E-02  0.10008412E-02  0.40540214E-02  0.27441597E+01  0.62566925E+01  0.25735605E+01  0.26362677E+01  0.17342101E+01  0.38946296E-02  0.96149117E-03  0.47287353E+01  0.35372318E-01  0.38221736E+01  0.80828664E+00  0.73656835E+00  0.18855174E+01  0.26362806E+01  0.69447226E+01 -0.19366561E+01 -0.11858929E+01  0.31225491E+01  0.53086975E+00  0.38243259E+01  0.35773983E+01 -0.14524163E+01 -0.53086975E+00  0.38243259E+01  0.30465285E+01 -0.23719097E+01 -0.30465285E+01 -0.23719097E+01 -0.35773983E+01 -0.14524163E+01  0.63585628E+06 -0.22647613E-08  0.80101659E+00  0.19898341E+00
  0.23000000E+00  0.23000000E+00  0.10428256E+01  0.00000000E+00  0.00000000E+00  0.42825606E-01  0.10000000E+01  0.00000000E+00  0.00000000E+00  0.00000000E+00  0.10000000E+01  0.63878503E+01  0.16494291E+01  0.69646689E-03  0.18407605E+01  0.28182597E+01  0.47061510E-02  0.92783728E-03  0.47061510E-02  0.28889757E+01  0.64634446E+01  0.27025226E+01  0.27703344E+01  0.17651662E+01  0.45128840E-02  0.88973389E-03  0.48209539E+01  0.36979953E-01  0.39787672E+01  0.82530703E+00  0.73618017E+00  0.20038275E+01  0.27703525E+01  0.71621215E+01 -0.19749397E+01 -0.12084146E+01  0.31833544E+01  0.54201507E+00  0.38987969E+01  0.36474647E+01 -0.14799996E+01 -0.54201507E+00  0.38987969E+01  0.31054496E+01 -0.24187973E+01 -0.31054496E+01 -0.24187973E+01 -0.36474647E+01 -0.14799996E+01  0.67536965E+06 -0.28266747E-08  0.80127662E+00  0.19872338E+00
  0.24000000E+00  0.24000000E+00  0.10447286E+01  0.00000000E+00  0.00000000E+00  0.44728636E-01  0.10000000E+01  0.00000000E+00  0.00000000E+00  0.00000000E+00  0.10000000E+01  0.65806671E+01  0.16621631E+01  0.21287234E-03  0.18690494E+01  0.29632020E+01  0.56658094E-02  0.47581775E-03  0.56658094E-02  0.30377413E+01  0.66606879E+01  0.28363365E+01  0.29076846E+01  0.17890286E+01  0.54232354E-02  0.45544626E-03  0.48948803E+01  0.38587562E-01  0.41349030E+01  0.84474038E+00  0.73633444E+00  0.21298868E+01  0.29077138E+01  0.73671084E+01 -0.20050162E+01 -0.12271892E+01  0.32322054E+01  0.55000678E+00  0.39586270E+01  0.37032749E+01 -0.15029937E+01 -0.55000678E+00  0.39586270E+01  0.31532681E+01 -0.24556333E+01 -0.31532681E+01 -0.24556333E+01 -0.37032749E+01 -0.15029937E+01  0.71324239E+06 -0.34777123E-08  0.80153549E+00  0.19846452E+00
  0.25000000E+00  0.25000000E+00  0.10466351E+01  0.00000000E+00  0.00000000E+00  0.46635139E-01  0.10000000E+01  0.00000000E+00  0.00000000E+00  0.00000000E+00  0.10000000E+01  0.67642334E+01  0.16668891E+01 -0.40445595E-03  0.18898665E+01  0.31144296E+01  0.66238651E-02 -0.11441294E-03  0.66238651E-02  0.31905266E+01  0.68484405E+01  0.29756593E+01  0.30483656E+01  0.18056594E+01  0.63287241E-02 -0.10931502E-03  0.49500992E+01  0.40195144E-01  0.42908218E+01  0.86681531E+00  0.73719606E+00  0.22643619E+01  0.30484094E+01  0.75596942E+01 -0.20264599E+01 -0.12424124E+01  0.32688724E+01  0.55440528E+00  0.40035346E+01  0.37443653E+01 -0.15216383E+01 -0.55440528E+00  0.40035346E+01  0.31899601E+01 -0.24818964E+01 -0.31899601E+01 -0.24818964E+01 -0.37443653E+01 -0.15216383E+01  0.74916228E+06 -0.42277444E-08  0.80179190E+00  0.19820811E+00
  0.26000000E+00  0.26000000E+00  0.10485451E+01  0.00000000E+00  0.00000000E+00  0.48545121E-01  0.10000000E+01  0.00000000E+00  0.00000000E+00  0.00000000E+00  0.10000000E+01  0.69398134E+01  0.16642840E+01 -0.94862274E-03  0.19038934E+01  0.32715248E+01  0.73654098E-02 -0.63711903E-03  0.73654098E-02  0.33467056E+01  0.70279591E+01  0.31200611E+01  0.31917611E+01  0.18157477E+01  0.70244090E-02 -0.60762195E-03  0.49887453E+01  0.41802696E-01  0.44465937E+01  0.89132507E+00  0.73884714E+00  0.24065830E+01  0.31918184E+01  0.77413798E+01 -0.20400107E+01 -0.12547753E+01  0.32947860E+01  0.55524530E+00  0.40352723E+01  0.37722710E+01 -0.15367796E+01 -0.55524530E+00  0.40352723E+01  0.32170257E+01 -0.24984927E+01 -0.32170257E+01 -0.24984927E+01 -0.37722710E+01 -0.15367796E+01  0.78326729E+06 -0.50889619E-08  0.80204546E+00  0.19795454E+00
  0.27000000E+00  0.27000000E+00  0.10504586E+01  0.00000000E+00  0.00000000E+00  0.50458589E-01  0.10000000E+01  0.00000000E+00  0.00000000E+00  0.00000000E+00  0.10000000E+01  0.71096789E+01  0.16567511E+01 -0.13880474E-02  0.19135544E+01  0.34326348E+01  0.80263327E-02 -0.10530889E-02  0.80263327E-02  0.35053805E+01  0.72015961E+01  0.32677488E+01  0.33370002E+01  0.18216371E+01  0.76407893E-02 -0.10025039E-02  0.50162525E+01  0.43410219E-01  0.46021150E+01  0.91744086E+00  0.74091360E+00  0.25537149E+01  0.33370709E+01  0.79155594E+01 -0.20484001E+01 -0.12650442E+01  0.33134443E+01  0.55391628E+00  0.40581239E+01  0.37913966E+01 -0.15493564E+01 -0.55391628E+00  0.40581239E+01  0.32374803E+01 -0.25087675E+01 -0.32374803E+01 -0.25087675E+01 -0.37913966E+01 -0.15493564E+01  0.81643650E+06 -0.60748730E-08  0.80229673E+00  0.19770327E+00
  0.28000000E+00  0.28000000E+00  0.10523755E+01  0.00000000E+00  0.00000000E+00  0.52375549E-01  0.10000000E+01  0.00000000E+00  0.00000000E+00  0.00000000E+00  0.10000000E+01  0.72751390E+01  0.16456030E+01 -0.17031619E-02  0.19201682E+01  0.35966365E+01  0.85653723E-02 -0.13437499E-02  0.85653723E-02  0.36660652E+01  0.73707036E+01  0.34176360E+01  0.34836093E+01  0.18246036E+01  0.81390834E-02 -0.12768730E-02  0.50356764E+01  0.45017712E-01  0.47573163E+01  0.94472239E+00  0.74317697E+00  0.27041306E+01  0.34836916E+01  0.80841266E+01 -0.20531857E+01 -0.12736247E+01  0.33268103E+01  0.55123288E+00  0.40744939E+01  0.38042317E+01 -0.15598653E+01 -0.55123288E+00  0.40744939E+01  0.32529988E+01 -0.25146286E+01 -0.32529988E+01 -0.25146286E+01 -0.38042317E+01 -0.15598653E+01  0.84915760E+06 -0.71995476E-08  0.80254608E+00  0.19745393E+00
  0.29000000E+00  0.29000000E+00  0.10542960E+01  0.00000000E+00  0.00000000E+00  0.54296006E-01  0.10000000E+01  0.00000000E+00  0.00000000E+00  0.00000000E+00  0.10000000E+01  0.74372383E+01  0.16318345E+01 -0.19319482E-02  0.19247316E+01  0.37626147E+01  0.90282550E-02 -0.15466471E-02  0.90282550E-02  0.38282852E+01  0.75363616E+01  0.35688409E+01  0.36311294E+01  0.18256084E+01  0.85633019E-02 -0.14669951E-02  0.50494290E+01  0.46625172E-01  0.49121106E+01  0.97280517E+00  0.74549872E+00  0.28565569E+01  0.36312223E+01  0.82485527E+01 -0.20555537E+01 -0.12808884E+01  0.33364421E+01  0.54777115E+00  0.40862904E+01  0.38127168E+01 -0.15687614E+01 -0.54777115E+00  0.40862904E+01  0.32649457E+01 -0.25175289E+01 -0.32649457E+01 -0.25175289E+01 -0.38127168E+01 -0.15687614E+01  0.88183194E+06 -0.84766412E-08  0.80279399E+00  0.19720602E+00
  0.30000000E+00  0.30000000E+00  0.10562200E+01  0.00000000E+00  0.00000000E+00  0.56219968E-01  0.10000000E+01  0.00000000E+00  0.00000000E+00  0.00000000E+00  0.10000000E+01  0.75966728E+01  0.16160980E+01 -0.21294627E-02  0.19278923E+01  0.39298731E+01  0.94655915E-02 -0.17170257E-02  0.94655915E-02  0.39917494E+01  0.76992897E+01  0.37206957E+01  0.37792784E+01  0.18252754E+01  0.89617615E-02 -0.16256327E-02  0.50591210E+01  0.48232599E-01  0.50664213E+01  0.10014430E+01  0.74776036E+00  0.30100864E+01  0.37793817E+01  0.84097957E+01 -0.20563349E+01 -0.12870396E+01  0.33433744E+01  0.54397392E+00  0.40947807E+01  0.38181711E+01 -0.15762951E+01 -0.54397392E+00  0.40947807E+01  0.32741971E+01 -0.25184856E+01 -0.32741971E+01 -0.25184856E+01 -0.38181711E+01 -0.15762951E+01  0.91472504E+06 -0.99219082E-08  0.80304088E+00  0.19695912E+00
  0.31000000E+00  0.31000000E+00  0.10581474E+01  0.00000000E+00  0.00000000E+00  0.58147442E-01  0.10000000E+01  0.00000000E+00  0.00000000E+00  0.00000000E+00  0.10000000E+01  0.77538729E+01  0.15987640E+01 -0.23114626E-02  0.19300202E+01  0.40980696E+01  0.98723114E-02 -0.18718186E-02  0.98723114E-02  0.41562350E+01  0.78599316E+01  0.38728720E+01  0.39278411E+01  0.18239615E+01  0.93298070E-02 -0.17689582E-02  0.50656963E+01  0.49839992E-01  0.52202149E+01  0.10305029E+01  0.74993160E+00  0.31642519E+01  0.39279546E+01  0.85684381E+01 -0.20559630E+01 -0.12922603E+01  0.33482233E+01  0.54001934E+00  0.41007193E+01  0.38213367E+01 -0.15826892E+01 -0.54001934E+00  0.41007193E+01  0.32813174E+01 -0.25180301E+01 -0.32813174E+01 -0.25180301E+01 -0.38213367E+01 -0.15826892E+01  0.94798928E+06 -0.11550848E-07  0.80328695E+00  0.19671306E+00
  0.32000000E+00  0.32000000E+00  0.10600784E+01  0.00000000E+00  0.00000000E+00  0.60078432E-01  0.10000000E+01  0.00000000E+00  0.00000000E+00  0.00000000E+00  0.10000000E+01  0.79091472E+01  0.15800899E+01 -0.24934468E-02  0.19313737E+01  0.42669964E+01  0.10251270E-01 -0.20273690E-02  0.10251270E-01  0.43215569E+01  0.80186051E+01  0.40251705E+01  0.40766388E+01  0.18219158E+01  0.96702939E-02 -0.19124707E-02  0.50698182E+01  0.51447349E-01  0.53734715E+01  0.10598943E+01  0.75200981E+00  0.33187545E+01  0.40767625E+01  0.87248973E+01 -0.20547169E+01 -0.12967089E+01  0.33514259E+01  0.53599260E+00  0.41046416E+01  0.38227202E+01 -0.15881376E+01 -0.53599260E+00  0.41046416E+01  0.32867276E+01 -0.25165040E+01 -0.32867276E+01 -0.25165040E+01 -0.38227202E+01 -0.15881376E+01  0.98173151E+06 -0.13378569E-07  0.80353232E+00  0.19646770E+00
  0.33000000E+00  0.33000000E+00  0.10620129E+01  0.00000000E+00  0.00000000E+00  0.62012947E-01  0.10000000E+01  0.00000000E+00  0.00000000E+00  0.00000000E+00  0.10000000E+01  0.80627437E+01  0.15602808E+01 -0.26701447E-02  0.19321567E+01  0.44364660E+01  0.10623324E-01 -0.21769446E-02  0.10623324E-01  0.44875880E+01  0.81755660E+01  0.41774124E+01  0.42255493E+01  0.18193344E+01  0.10003008E-01 -0.20498287E-02  0.50720151E+01  0.53054670E-01  0.55261759E+01  0.10895425E+01  0.75398066E+00  0.34733402E+01  0.42256834E+01  0.88795040E+01 -0.20528357E+01 -0.13004924E+01  0.33533281E+01  0.53198702E+00  0.41069714E+01  0.38227351E+01 -0.15927714E+01 -0.53198702E+00  0.41069714E+01  0.32907481E+01 -0.25142000E+01 -0.32907481E+01 -0.25142000E+01 -0.38227351E+01 -0.15927714E+01  0.10160411E+07 -0.15421554E-07  0.80377707E+00  0.19622294E+00
  0.34000000E+00  0.34000000E+00  0.10639510E+01  0.00000000E+00  0.00000000E+00  0.63950992E-01  0.10000000E+01  0.00000000E+00  0.00000000E+00  0.00000000E+00  0.10000000E+01  0.82148442E+01  0.15394662E+01 -0.28404740E-02  0.19324970E+01  0.46063468E+01  0.10983314E-01 -0.23197314E-02  0.10983314E-01  0.46542342E+01  0.83310010E+01  0.43294727E+01  0.43744817E+01  0.18163403E+01  0.10323139E-01 -0.21802991E-02  0.50726481E+01  0.54661953E-01  0.56783185E+01  0.11193992E+01  0.75583930E+00  0.36278427E+01  0.43746264E+01  0.90324863E+01 -0.20504758E+01 -0.13036921E+01  0.33541679E+01  0.52805585E+00  0.41079999E+01  0.38216602E+01 -0.15966902E+01 -0.52805585E+00  0.41079999E+01  0.32936043E+01 -0.25113097E+01 -0.32936043E+01 -0.25113097E+01 -0.38216602E+01 -0.15966902E+01  0.10509749E+07 -0.17694697E-07  0.80402128E+00  0.19597873E+00
  0.35000000E+00  0.35000000E+00  0.10658926E+01  0.00000000E+00  0.00000000E+00  0.65892573E-01  0.10000000E+01  0.00000000E+00  0.00000000E+00  0.00000000E+00  0.10000000E+01  0.83655996E+01  0.15177391E+01 -0.30079491E-02  0.19324852E+01  0.47765379E+01  0.11326276E-01 -0.24598331E-02  0.11326276E-01  0.48213957E+01  0.84850642E+01  0.44812564E+01  0.45233411E+01  0.18130207E+01  0.10626095E-01 -0.23077683E-02  0.50720050E+01  0.56269198E-01  0.58298872E+01  0.11494246E+01  0.75759288E+00  0.37821411E+01  0.45234963E+01  0.91840243E+01 -0.20477461E+01 -0.13063909E+01  0.33541370E+01  0.52421731E+00  0.41079621E+01  0.38197082E+01 -0.15999956E+01 -0.52421731E+00  0.41079621E+01  0.32954909E+01 -0.25079666E+01 -0.32954909E+01 -0.25079666E+01 -0.38197082E+01 -0.15999956E+01  0.10865755E+07 -0.20212055E-07  0.80426503E+00  0.19573499E+00
  0.36000000E+00  0.36000000E+00  0.10678377E+01  0.00000000E+00  0.00000000E+00  0.67837698E-01  0.10000000E+01  0.00000000E+00  0.00000000E+00  0.00000000E+00  0.10000000E+01  0.85151230E+01  0.14951706E+01 -0.31743457E-02  0.19321906E+01  0.49469705E+01  0.11661552E-01 -0.25985931E-02  0.11661552E-01  0.49889934E+01  0.86378714E+01  0.46326989E+01  0.46720521E+01  0.18094422E+01  0.10920716E-01 -0.24335094E-02  0.50703016E+01  0.57876402E-01  0.59808741E+01  0.11795894E+01  0.75924962E+00  0.39361499E+01  0.46722179E+01  0.93342545E+01 -0.20447242E+01 -0.13086562E+01  0.33533804E+01  0.52047872E+00  0.41070355E+01  0.38170364E+01 -0.16027700E+01 -0.52047872E+00  0.41070355E+01  0.32965577E+01 -0.25042655E+01 -0.32965577E+01 -0.25042655E+01 -0.38170364E+01 -0.16027700E+01  0.11228734E+07 -0.22987872E-07  0.80450837E+00  0.19549166E+00
  0.37000000E+00  0.37000000E+00  0.10697864E+01  0.00000000E+00  0.00000000E+00  0.69786372E-01  0.10000000E+01  0.00000000E+00  0.00000000E+00  0.00000000E+00  0.10000000E+01  0.86635066E+01  0.14718153E+01 -0.33375934E-02  0.19316656E+01  0.51175842E+01  0.11983843E-01 -0.27342030E-02  0.11983843E-01  0.51569535E+01  0.87895168E+01  0.47837440E+01  0.48205451E+01  0.18056554E+01  0.11202089E-01 -0.25558402E-02  0.50677138E+01  0.59483565E-01  0.61312686E+01  0.12098688E+01  0.76081872E+00  0.40897989E+01  0.48207216E+01  0.94832854E+01 -0.20414697E+01 -0.13105471E+01  0.33520168E+01  0.51684037E+00  0.41053654E+01  0.38137709E+01 -0.16050858E+01 -0.51684037E+00  0.41053654E+01  0.32969305E+01 -0.25002796E+01 -0.32969305E+01 -0.25002796E+01 -0.38137709E+01 -0.16050858E+01  0.11598920E+07 -0.26036360E-07  0.80475136E+00  0.19524866E+00
  0.38000000E+00  0.38000000E+00  0.10717386E+01  0.00000000E+00  0.00000000E+00  0.71738602E-01  0.10000000E+01  0.00000000E+00  0.00000000E+00  0.00000000E+00  0.10000000E+01  0.88108224E+01  0.14477148E+01 -0.34948168E-02  0.19309491E+01  0.52883267E+01  0.12292289E-01 -0.28636984E-02  0.12292289E-01  0.53252206E+01  0.89400737E+01  0.49343437E+01  0.49687682E+01  0.18016978E+01  0.11469484E-01 -0.26720120E-02  0.50643779E+01  0.61090686E-01  0.62810619E+01  0.12402435E+01  0.76230566E+00  0.42430311E+01  0.49689551E+01  0.96311995E+01 -0.20380308E+01 -0.13121068E+01  0.33501376E+01  0.51330582E+00  0.41030638E+01  0.38100104E+01 -0.16069960E+01 -0.51330582E+00  0.41030638E+01  0.32967046E+01 -0.24960678E+01 -0.32967046E+01 -0.24960678E+01 -0.38100104E+01 -0.16069960E+01  0.11976474E+07 -0.29372190E-07  0.80499407E+00  0.19500596E+00
  0.39000000E+00  0.39000000E+00  0.10736944E+01  0.00000000E+00  0.00000000E+00  0.73694395E-01  0.10000000E+01  0.00000000E+00  0.00000000E+00  0.00000000E+00  0.10000000E+01  0.89571275E+01  0.14229100E+01 -0.36491936E-02  0.19300804E+01  0.54591660E+01  0.12597228E-01 -0.29897737E-02  0.12597228E-01  0.54937465E+01  0.90896011E+01  0.50844691E+01  0.51166762E+01  0.17976068E+01  0.11732601E-01 -0.27845667E-02  0.50604084E+01  0.62697764E-01  0.64302488E+01  0.12706976E+01  0.76371698E+00  0.43958035E+01  0.51168738E+01  0.97780690E+01 -0.20344453E+01 -0.13133750E+01  0.33478203E+01  0.50987371E+00  0.41002257E+01  0.38058365E+01 -0.16085493E+01 -0.50987371E+00  0.41002257E+01  0.32959628E+01 -0.24916764E+01 -0.32959628E+01 -0.24916764E+01 -0.38058365E+01 -0.16085493E+01  0.12361548E+07 -0.33010372E-07  0.80523654E+00  0.19476349E+00
  0.40000000E+00  0.40000000E+00  0.10756538E+01  0.00000000E+00  0.00000000E+00  0.75653757E-01  0.10000000E+01  0.00000000E+00  0.00000000E+00  0.00000000E+00  0.10000000E+01  0.91024635E+01  0.13974254E+01 -0.38028510E-02  0.19290826E+01  0.56300812E+01  0.12905318E-01 -0.31142151E-02  0.12905318E-01  0.56625012E+01  0.92381413E+01  0.52341018E+01  0.52642415E+01  0.17934048E+01  0.11997651E-01 -0.28951836E-02  0.50558798E+01  0.64304797E-01  0.65788282E+01  0.13012232E+01  0.76505724E+00  0.45480909E+01  0.52644502E+01  0.99239435E+01 -0.20307373E+01 -0.13143780E+01  0.33451153E+01  0.50654251E+00  0.40969128E+01  0.38013019E+01 -0.16097777E+01 -0.50654251E+00  0.40969128E+01  0.32947593E+01 -0.24871351E+01 -0.32947593E+01 -0.24871351E+01 -0.38013019E+01 -0.16097777E+01  0.12754200E+07 -0.36964043E-07  0.80547878E+00  0.19452126E+00
  0.41000000E+00  0.41000000E+00  0.10776167E+01  0.00000000E+00  0.00000000E+00  0.77616694E-01  0.10000000E+01  0.00000000E+00  0.00000000E+00  0.00000000E+00  0.10000000E+01  0.92468657E+01  0.13712815E+01 -0.39549909E-02  0.19279742E+01  0.58010505E+01  0.13222896E-01 -0.32356467E-02  0.13222896E-01  0.58314626E+01  0.93857305E+01  0.53832225E+01  0.54114442E+01  0.17891095E+01  0.12270500E-01 -0.30025952E-02  0.50508540E+01  0.65911784E-01  0.67267991E+01  0.13318142E+01  0.76632821E+00  0.46998693E+01  0.54116645E+01  0.10068863E+02 -0.20269297E+01 -0.13151346E+01  0.33420643E+01  0.50331516E+00  0.40931762E+01  0.37964521E+01 -0.16107044E+01 -0.50331516E+00  0.40931762E+01  0.32931370E+01 -0.24824718E+01 -0.32931370E+01 -0.24824718E+01 -0.37964521E+01 -0.16107044E+01  0.13154469E+07 -0.41246050E-07  0.80572081E+00  0.19427923E+00
  0.42000000E+00  0.42000000E+00  0.10795832E+01  0.00000000E+00  0.00000000E+00  0.79583214E-01  0.10000000E+01  0.00000000E+00  0.00000000E+00  0.00000000E+00  0.10000000E+01  0.93903647E+01  0.13444955E+01 -0.41113431E-02  0.19267702E+01  0.59720555E+01  0.13557665E-01 -0.33595744E-02  0.13557665E-01  0.60006112E+01  0.95323996E+01  0.55318158E+01  0.55582665E+01  0.17847352E+01  0.12558240E-01 -0.31119180E-02  0.50453834E+01  0.67518725E-01  0.68741607E+01  0.13624655E+01  0.76753189E+00  0.48511195E+01  0.55584992E+01  0.10212863E+02 -0.20230412E+01 -0.13156614E+01  0.33387026E+01  0.50019301E+00  0.40890589E+01  0.37913254E+01 -0.16113496E+01 -0.50019301E+00  0.40890589E+01  0.32911324E+01 -0.24777093E+01 -0.32911324E+01 -0.24777093E+01 -0.37913254E+01 -0.16113496E+01  0.13562377E+07 -0.45869458E-07  0.80596264E+00  0.19403740E+00
  0.43000000E+00  0.43000000E+00  0.10815533E+01  0.00000000E+00  0.00000000E+00  0.81553323E-01  0.10000000E+01  0.00000000E+00  0.00000000E+00  0.00000000E+00  0.10000000E+01  0.95329885E+01  0.13170801E+01 -0.42747849E-02  0.19254814E+01  0.61430854E+01  0.13908635E-01 -0.34891124E-02  0.13908635E-01  0.61699135E+01  0.96781772E+01  0.56798729E+01  0.57046781E+01  0.17802927E+01  0.12859870E-01 -0.32260198E-02  0.50395166E+01  0.69125618E-01  0.70209094E+01  0.13931712E+01  0.76867700E+00  0.50018303E+01  0.57049242E+01  0.10355974E+02 -0.20190791E+01 -0.13159852E+01  0.33350643E+01  0.49716244E+00  0.40846029E+01  0.37859511E+01 -0.16117462E+01 -0.49716244E+00  0.40846029E+01  0.32887887E+01 -0.24728568E+01 -0.32887887E+01 -0.24728568E+01 -0.37859511E+01 -0.16117462E+01  0.13977930E+07 -0.50845139E-07  0.80620431E+00  0.19379574E+00
  0.44000000E+00  0.44000000E+00  0.10835270E+01  0.00000000E+00  0.00000000E+00  0.83527026E-01  0.10000000E+01  0.00000000E+00  0.00000000E+00  0.00000000E+00  0.10000000E+01  0.96747624E+01  0.12890510E+01 -0.44382866E-02  0.19241217E+01  0.63141262E+01  0.14268205E-01 -0.36172228E-02  0.14268205E-01  0.63393324E+01  0.98230892E+01  0.58273823E+01  0.58506454E+01  0.17757949E+01  0.13168296E-01 -0.33383780E-02  0.50333049E+01  0.70732461E-01  0.71670390E+01  0.14239231E+01  0.76977221E+00  0.51519869E+01  0.58509056E+01  0.10498224E+02 -0.20150521E+01 -0.13161334E+01  0.33311855E+01  0.49421013E+00  0.40798524E+01  0.37803609E+01 -0.16119277E+01 -0.49421013E+00  0.40798524E+01  0.32861507E+01 -0.24679247E+01 -0.32861507E+01 -0.24679247E+01 -0.37803609E+01 -0.16119277E+01  0.14401144E+07 -0.56183588E-07  0.80644585E+00  0.19355421E+00
  0.45000000E+00  0.45000000E+00  0.10855043E+01  0.00000000E+00  0.00000000E+00  0.85504331E-01  0.10000000E+01  0.00000000E+00  0.00000000E+00  0.00000000E+00  0.10000000E+01  0.98157051E+01  0.12604222E+01 -0.45973663E-02  0.19227037E+01  0.64851686E+01  0.14625926E-01 -0.37398810E-02  0.14625926E-01  0.65088423E+01  0.99671550E+01  0.59743369E+01  0.59961459E+01  0.17712538E+01  0.13473854E-01 -0.34452935E-02  0.50267876E+01  0.72339255E-01  0.73125459E+01  0.14547155E+01  0.77082332E+00  0.53015781E+01  0.59964203E+01  0.10639639E+02 -0.20109678E+01 -0.13161256E+01  0.33270934E+01  0.49132764E+00  0.40748406E+01  0.37745793E+01 -0.16119181E+01 -0.49132764E+00  0.40748406E+01  0.32832517E+01 -0.24629225E+01 -0.32832517E+01 -0.24629225E+01 -0.37745793E+01 -0.16119181E+01  0.14832020E+07 -0.61893524E-07  0.80668730E+00  0.19331276E+00
  0.46000000E+00  0.46000000E+00  0.10874852E+01  0.00000000E+00  0.00000000E+00  0.87485245E-01  0.10000000E+01  0.00000000E+00  0.00000000E+00  0.00000000E+00  0.10000000E+01  0.99558342E+01  0.12312039E+01 -0.47500196E-02  0.19212355E+01  0.66562023E+01  0.14979287E-01 -0.38551098E-02  0.14979287E-01  0.66784263E+01  0.10110392E+02  0.61207288E+01  0.61411650E+01  0.17666773E+01  0.13774243E-01 -0.35449766E-02  0.50199953E+01  0.73945997E-01  0.74574287E+01  0.14855450E+01  0.77183347E+00  0.54505944E+01  0.61414538E+01  0.10780238E+02 -0.20068343E+01 -0.13159749E+01  0.33228093E+01  0.48851137E+00  0.40695936E+01  0.37686271E+01 -0.16117335E+01 -0.48851137E+00  0.40695936E+01  0.32801157E+01 -0.24578601E+01 -0.32801157E+01 -0.24578601E+01 -0.37686271E+01 -0.16117335E+01  0.15270541E+07 -0.67984484E-07  0.80692867E+00  0.19307140E+00
  0.47000000E+00  0.47000000E+00  0.10894698E+01  0.00000000E+00  0.00000000E+00  0.89469774E-01  0.10000000E+01  0.00000000E+00  0.00000000E+00  0.00000000E+00  0.10000000E+01  0.10095165E+02  0.12014052E+01 -0.48935220E-02  0.19197243E+01  0.68272187E+01  0.15325097E-01 -0.39602114E-02  0.15325097E-01  0.68480692E+01  0.10252817E+02  0.62665517E+01  0.62856900E+01  0.17620721E+01  0.14066564E-01 -0.36349896E-02  0.50129550E+01  0.75552687E-01  0.76016864E+01  0.15164083E+01  0.77280557E+00  0.55990280E+01  0.62859932E+01  0.10920038E+02 -0.20026583E+01 -0.13156932E+01  0.33183515E+01  0.48575770E+00  0.40641339E+01  0.37625221E+01 -0.16113885E+01 -0.48575770E+00  0.40641339E+01  0.32767644E+01 -0.24527455E+01 -0.32767644E+01 -0.24527455E+01 -0.37625221E+01 -0.16113885E+01  0.15716686E+07 -0.74465418E-07  0.80716998E+00  0.19283009E+00
  0.48000000E+00  0.48000000E+00  0.10914579E+01  0.00000000E+00  0.00000000E+00  0.91457924E-01  0.10000000E+01  0.00000000E+00  0.00000000E+00  0.00000000E+00  0.10000000E+01  0.10233713E+02  0.11710347E+01 -0.50296143E-02  0.19181767E+01  0.69982078E+01  0.15663349E-01 -0.40570749E-02  0.15663349E-01  0.70177582E+01  0.10394445E+02  0.64117981E+01  0.64297103E+01  0.17574444E+01  0.14350850E-01 -0.37171153E-02  0.50056919E+01  0.77159324E-01  0.77453178E+01  0.15473021E+01  0.77374144E+00  0.57468704E+01  0.64300278E+01  0.11059055E+02 -0.19984474E+01 -0.13152900E+01  0.33137373E+01  0.48306523E+00  0.40584828E+01  0.37562818E+01 -0.16108946E+01 -0.48306523E+00  0.40584828E+01  0.32732166E+01 -0.24475882E+01 -0.32732166E+01 -0.24475882E+01 -0.37562818E+01 -0.16108946E+01  0.16170435E+07 -0.81343045E-07  0.80741125E+00  0.19258883E+00
  0.49000000E+00  0.49000000E+00  0.10934497E+01  0.00000000E+00  0.00000000E+00  0.93449702E-01  0.10000000E+01  0.00000000E+00  0.00000000E+00  0.00000000E+00  0.10000000E+01  0.10371490E+02  0.11400990E+01 -0.51576896E-02  0.19165969E+01  0.71691621E+01  0.15995770E-01 -0.41448741E-02  0.15995770E-01  0.71874802E+01  0.10535288E+02  0.65564626E+01  0.65732152E+01  0.17527985E+01  0.14628721E-01 -0.37906400E-02  0.49982266E+01  0.78765905E-01  0.78883219E+01  0.15782242E+01  0.77464367E+00  0.58941159E+01  0.65735470E+01  0.11197303E+02 -0.19942060E+01 -0.13147749E+01  0.33089810E+01  0.48043036E+00  0.40526575E+01  0.37499195E+01 -0.16102638E+01 -0.48043036E+00  0.40526575E+01  0.32694891E+01 -0.24423936E+01 -0.32694891E+01 -0.24423936E+01 -0.37499195E+01 -0.16102638E+01  0.16631754E+07 -0.88623607E-07  0.80765249E+00  0.19234760E+00
  0.50000000E+00  0.50000000E+00  0.10954451E+01  0.00000000E+00  0.00000000E+00  0.95445115E-01  0.10000000E+01  0.00000000E+00  0.00000000E+00  0.00000000E+00  0.10000000E+01  0.10508506E+02  0.11086034E+01 -0.52776190E-02  0.19149886E+01  0.73400759E+01  0.16321944E-01 -0.42234920E-02  0.16321944E-01  0.73572255E+01  0.10675357E+02  0.67005419E+01  0.67161973E+01  0.17481374E+01  0.14899828E-01 -0.38555032E-02  0.49905750E+01  0.80372431E-01  0.80306988E+01  0.16091730E+01  0.77551417E+00  0.60407607E+01  0.67165433E+01  0.11334792E+02 -0.19899381E+01 -0.13141555E+01  0.33040936E+01  0.47785048E+00  0.40466717E+01  0.37434457E+01 -0.16095052E+01 -0.47785048E+00  0.40466717E+01  0.32655952E+01 -0.24371665E+01 -0.32655952E+01 -0.24371665E+01 -0.37434457E+01 -0.16095052E+01  0.17100602E+07 -0.96312037E-07  0.80789371E+00  0.19210639E+00
  0.51000000E+00  0.51000000E+00  0.10974442E+01  0.00000000E+00  0.00000000E+00  0.97444169E-01  0.10000000E+01  0.00000000E+00  0.00000000E+00  0.00000000E+00  0.10000000E+01  0.10644773E+02  0.10765534E+01 -0.53892183E-02  0.19133550E+01  0.75109440E+01  0.16644016E-01 -0.42925039E-02  0.16644016E-01  0.75269824E+01  0.10814664E+02  0.68440329E+01  0.68586473E+01  0.17434646E+01  0.15166162E-01 -0.39113642E-02  0.49827541E+01  0.81978900E-01  0.81724480E+01  0.16401468E+01  0.77635568E+00  0.61868016E+01  0.68590075E+01  0.11471535E+02 -0.19856464E+01 -0.13134405E+01  0.32990869E+01  0.47532136E+00  0.40405398E+01  0.37368708E+01 -0.16086295E+01 -0.47532136E+00  0.40405398E+01  0.32615494E+01 -0.24319103E+01 -0.32615494E+01 -0.24319103E+01 -0.37368708E+01 -0.16086295E+01  0.17576941E+07 -0.10441258E-06  0.80813492E+00  0.19186519E+00
  0.52000000E+00  0.52000000E+00  0.10994469E+01  0.00000000E+00  0.00000000E+00  0.99446872E-01  0.10000000E+01  0.00000000E+00  0.00000000E+00  0.00000000E+00  0.10000000E+01  0.10780302E+02  0.10439545E+01 -0.54938762E-02  0.19116998E+01  0.76817630E+01  0.16961680E-01 -0.43534390E-02  0.16961680E-01  0.76967397E+01  0.10953219E+02  0.69869342E+01  0.70005562E+01  0.17387832E+01  0.15427466E-01 -0.39596629E-02  0.49747796E+01  0.83585311E-01  0.83135697E+01  0.16711433E+01  0.77717115E+00  0.63322366E+01  0.70009307E+01  0.11607542E+02 -0.19813331E+01 -0.13126390E+01  0.32939721E+01  0.47283814E+00  0.40342755E+01  0.37302041E+01 -0.16076479E+01 -0.47283814E+00  0.40342755E+01  0.32573660E+01 -0.24266276E+01 -0.32573660E+01 -0.24266276E+01 -0.37302041E+01 -0.16076479E+01  0.18060737E+07 -0.11292665E-06  0.80837613E+00  0.19162398E+00
  0.53000000E+00  0.53000000E+00  0.11014532E+01  0.00000000E+00  0.00000000E+00  0.10145323E+00  0.10000000E+01  0.00000000E+00  0.00000000E+00  0.00000000E+00  0.10000000E+01  0.10915102E+02  0.10108102E+01 -0.55922977E-02  0.19100246E+01  0.78525291E+01  0.17273978E-01 -0.44071535E-02  0.17273978E-01  0.78664895E+01  0.11091031E+02  0.71292442E+01  0.71419188E+01  0.17340951E+01  0.15682898E-01 -0.40012171E-02  0.49666634E+01  0.85191663E-01  0.84540647E+01  0.17021618E+01  0.77796251E+00  0.64770645E+01  0.71423074E+01  0.11742822E+02 -0.19770003E+01 -0.13117573E+01  0.32887576E+01  0.47039779E+00  0.40278890E+01  0.37234531E+01 -0.16065680E+01 -0.47039779E+00  0.40278890E+01  0.32530553E+01 -0.24213209E+01 -0.32530553E+01 -0.24213209E+01 -0.37234531E+01 -0.16065680E+01  0.18551944E+07 -0.12185602E-06  0.80861735E+00  0.19138277E+00
  0.54000000E+00  0.54000000E+00  0.11034632E+01  0.00000000E+00  0.00000000E+00  0.10346325E+00  0.10000000E+01  0.00000000E+00  0.00000000E+00  0.00000000E+00  0.10000000E+01  0.11049179E+02  0.97712572E+00 -0.56847734E-02  0.19083328E+01  0.80232400E+01  0.17581121E-01 -0.44539386E-02  0.17581121E-01  0.80362253E+01  0.11228109E+02  0.72709626E+01  0.72827304E+01  0.17294031E+01  0.15932675E-01 -0.40363271E-02  0.49584166E+01  0.86797954E-01  0.85939340E+01  0.17332013E+01  0.77873133E+00  0.66212840E+01  0.72831331E+01  0.11877385E+02 -0.19726500E+01 -0.13108009E+01  0.32834509E+01  0.46799793E+00  0.40213897E+01  0.37166246E+01 -0.16053967E+01 -0.46799793E+00  0.40213897E+01  0.32486266E+01 -0.24159929E+01 -0.32486266E+01 -0.24159929E+01 -0.37166246E+01 -0.16053967E+01  0.19050520E+07 -0.13120026E-06  0.80885858E+00  0.19114155E+00
  0.55000000E+00  0.55000000E+00  0.11054769E+01  0.00000000E+00  0.00000000E+00  0.10547693E+00  0.10000000E+01  0.00000000E+00  0.00000000E+00  0.00000000E+00  0.10000000E+01  0.11182543E+02  0.94290425E+00 -0.57714986E-02  0.19066254E+01  0.81938914E+01  0.17883715E-01 -0.44939391E-02  0.17883715E-01  0.82059403E+01  0.11364460E+02  0.74120871E+01  0.74229864E+01  0.17247085E+01  0.16177375E-01 -0.40651587E-02  0.49500491E+01  0.88404184E-01  0.87331779E+01  0.17642609E+01  0.77947901E+00  0.67648937E+01  0.74234031E+01  0.12011237E+02 -0.19682843E+01 -0.13097748E+01  0.32780591E+01  0.46563649E+00  0.40147860E+01  0.37097249E+01 -0.16041400E+01 -0.46563649E+00  0.40147860E+01  0.32440885E+01 -0.24106460E+01 -0.32440885E+01 -0.24106460E+01 -0.37097249E+01 -0.16041400E+01  0.19556414E+07 -0.14095751E-06  0.80909983E+00  0.19090031E+00
  0.56000000E+00  0.56000000E+00  0.11074943E+01  0.00000000E+00  0.00000000E+00  0.10749430E+00  0.10000000E+01  0.00000000E+00  0.00000000E+00  0.00000000E+00  0.10000000E+01  0.11315200E+02  0.90815016E+00 -0.58526879E-02  0.19049051E+01  0.83644810E+01  0.18181321E-01 -0.45274303E-02  0.18181321E-01  0.83756285E+01  0.11500092E+02  0.75526177E+01  0.75626832E+01  0.17200135E+01  0.16416627E-01 -0.40879942E-02  0.49415702E+01  0.90010351E-01  0.88717975E+01  0.17953398E+01  0.78020694E+00  0.69078927E+01  0.75631138E+01  0.12144386E+02 -0.19639048E+01 -0.13086837E+01  0.32725885E+01  0.46331128E+00  0.40080860E+01  0.37027599E+01 -0.16028036E+01 -0.46331128E+00  0.40080860E+01  0.32394486E+01 -0.24052823E+01 -0.32394486E+01 -0.24052823E+01 -0.37027599E+01 -0.16028036E+01  0.20069582E+07 -0.15112432E-06  0.80934110E+00  0.19065905E+00
  0.57000000E+00  0.57000000E+00  0.11095153E+01  0.00000000E+00  0.00000000E+00  0.10951534E+00  0.10000000E+01  0.00000000E+00  0.00000000E+00  0.00000000E+00  0.10000000E+01  0.11447156E+02  0.87286720E+00 -0.59279784E-02  0.19031737E+01  0.85350070E+01  0.18475031E-01 -0.45538837E-02  0.18475031E-01  0.85452836E+01  0.11635010E+02  0.76925543E+01  0.77018166E+01  0.17153199E+01  0.16651442E-01 -0.41043901E-02  0.49329883E+01  0.91616455E-01  0.90097935E+01  0.18264372E+01  0.78091671E+00  0.70502808E+01  0.77022610E+01  0.12276839E+02 -0.19595127E+01 -0.13075325E+01  0.32670452E+01  0.46101966E+00  0.40012968E+01  0.36957345E+01 -0.16013937E+01 -0.46101966E+00  0.40012968E+01  0.32347149E+01 -0.23999032E+01 -0.32347149E+01 -0.23999032E+01 -0.36957345E+01 -0.16013937E+01  0.20589974E+07 -0.16169570E-06  0.80958240E+00  0.19041776E+00
  0.58000000E+00  0.58000000E+00  0.11115401E+01  0.00000000E+00  0.00000000E+00  0.11154007E+00  0.10000000E+01  0.00000000E+00  0.00000000E+00  0.00000000E+00  0.10000000E+01  0.11578418E+02  0.83705793E+00 -0.59968739E-02  0.19014317E+01  0.87054658E+01  0.18764563E-01 -0.45727651E-02  0.18764563E-01  0.87149020E+01  0.11769222E+02  0.78318956E+01  0.78403849E+01  0.17106281E+01  0.16881589E-01 -0.41139003E-02  0.49243105E+01  0.93222494E-01  0.91471674E+01  0.18575529E+01  0.78160904E+00  0.71920575E+01  0.78408432E+01  0.12408601E+02 -0.19551098E+01 -0.13063242E+01  0.32614340E+01  0.45876071E+00  0.39944246E+01  0.36886535E+01 -0.15999139E+01 -0.45876071E+00  0.39944246E+01  0.32298928E+01 -0.23945107E+01 -0.32298928E+01 -0.23945107E+01 -0.36886535E+01 -0.15999139E+01  0.21117541E+07 -0.17266549E-06  0.80982373E+00  0.19017644E+00
  0.59000000E+00  0.59000000E+00  0.11135685E+01  0.00000000E+00  0.00000000E+00  0.11356849E+00  0.10000000E+01  0.00000000E+00  0.00000000E+00  0.00000000E+00  0.10000000E+01  0.11708993E+02  0.80072523E+00 -0.60595462E-02  0.18996799E+01  0.88758551E+01  0.19049746E-01 -0.45842688E-02  0.19049746E-01  0.88844792E+01  0.11902734E+02  0.79706414E+01  0.79783859E+01  0.17059390E+01  0.17106937E-01 -0.41167372E-02  0.49155440E+01  0.94828467E-01  0.92839205E+01  0.18886863E+01  0.78228504E+00  0.73332231E+01  0.79788578E+01  0.12539680E+02 -0.19506973E+01 -0.13050627E+01  0.32557600E+01  0.45653266E+00  0.39874754E+01  0.36815213E+01 -0.15983688E+01 -0.45653266E+00  0.39874754E+01  0.32249887E+01 -0.23891066E+01 -0.32249887E+01 -0.23891066E+01 -0.36815213E+01 -0.15983688E+01  0.21652233E+07 -0.18402533E-06  0.81006509E+00  0.18993509E+00
  0.60000000E+00  0.60000000E+00  0.11156006E+01  0.00000000E+00  0.00000000E+00  0.11560062E+00  0.10000000E+01  0.00000000E+00  0.00000000E+00  0.00000000E+00  0.10000000E+01  0.11838886E+02  0.76387269E+00 -0.61165065E-02  0.18979201E+01  0.90461735E+01  0.19329701E-01 -0.45890530E-02  0.19329701E-01  0.90540116E+01  0.12035552E+02  0.81087921E+01  0.81158180E+01  0.17012541E+01  0.17326722E-01 -0.41135267E-02  0.49066946E+01  0.96434373E-01  0.94200540E+01  0.19198370E+01  0.78294548E+00  0.74737775E+01  0.81163033E+01  0.12670081E+02 -0.19462765E+01 -0.13037507E+01  0.32500272E+01  0.45433434E+00  0.39804541E+01  0.36743416E+01 -0.15967620E+01 -0.45433434E+00  0.39804541E+01  0.32200072E+01 -0.23836921E+01 -0.32200072E+01 -0.23836921E+01 -0.36743416E+01 -0.15967620E+01  0.22194000E+07 -0.19576543E-06  0.81030649E+00  0.18969370E+00
  0.61000000E+00  0.61000000E+00  0.11176365E+01  0.00000000E+00  0.00000000E+00  0.11763646E+00  0.10000000E+01  0.00000000E+00  0.00000000E+00  0.00000000E+00  0.10000000E+01  0.11968101E+02  0.72650438E+00 -0.61683495E-02  0.18961549E+01  0.92164207E+01  0.19604882E-01 -0.45877234E-02  0.19604882E-01  0.92234950E+01  0.12167680E+02  0.82463494E+01  0.82526791E+01  0.16965757E+01  0.17541376E-01 -0.41048441E-02  0.48977685E+01  0.98040211E-01  0.95555696E+01  0.19510048E+01  0.78359149E+00  0.76137215E+01  0.82531778E+01  0.12799809E+02 -0.19418481E+01 -0.13023918E+01  0.32442399E+01  0.45216385E+00  0.39733662E+01  0.36671180E+01 -0.15950977E+01 -0.45216385E+00  0.39733662E+01  0.32149541E+01 -0.23782685E+01 -0.32149541E+01 -0.23782685E+01 -0.36671180E+01 -0.15950977E+01  0.22742795E+07 -0.20787631E-06  0.81054792E+00  0.18945228E+00
  0.62000000E+00  0.62000000E+00  0.11196760E+01  0.00000000E+00  0.00000000E+00  0.11967601E+00  0.10000000E+01  0.00000000E+00  0.00000000E+00  0.00000000E+00  0.10000000E+01  0.12096644E+02  0.68862279E+00 -0.62149389E-02  0.18943846E+01  0.93865950E+01  0.19875598E-01 -0.45800856E-02  0.19875598E-01  0.93929254E+01  0.12299124E+02  0.83833135E+01  0.83889672E+01  0.16919043E+01  0.17751205E-01 -0.40905455E-02  0.48887710E+01  0.99645980E-01  0.96904683E+01  0.19821890E+01  0.78422413E+00  0.77530555E+01  0.83894791E+01  0.12928870E+02 -0.19374127E+01 -0.13009892E+01  0.32384019E+01  0.45001941E+00  0.39662162E+01  0.36598537E+01 -0.15933798E+01 -0.45001941E+00  0.39662162E+01  0.32098342E+01 -0.23728363E+01 -0.32098342E+01 -0.23728363E+01 -0.36598537E+01 -0.15933798E+01  0.23298565E+07 -0.22034481E-06  0.81078940E+00  0.18921082E+00
  0.63000000E+00  0.63000000E+00  0.11217193E+01  0.00000000E+00  0.00000000E+00  0.12171928E+00  0.10000000E+01  0.00000000E+00  0.00000000E+00  0.00000000E+00  0.10000000E+01  0.12224520E+02  0.65023003E+00 -0.62567862E-02  0.18926095E+01  0.95566940E+01  0.20141639E-01 -0.45667317E-02  0.20141639E-01  0.95622998E+01  0.12429889E+02  0.85196841E+01  0.85246816E+01  0.16872399E+01  0.17956042E-01 -0.40711896E-02  0.48797070E+01  0.10125168E+00  0.98247517E+01  0.20133897E+01  0.78484405E+00  0.78917802E+01  0.85252065E+01  0.13057268E+02 -0.19329715E+01 -0.12995452E+01  0.32325167E+01  0.44790002E+00  0.39590082E+01  0.36525517E+01 -0.15916113E+01 -0.44790002E+00  0.39590082E+01  0.32046517E+01 -0.23673969E+01 -0.32046517E+01 -0.23673969E+01 -0.36525517E+01 -0.15916113E+01  0.23861257E+07 -0.23315612E-06  0.81103091E+00  0.18896932E+00
  0.64000000E+00  0.64000000E+00  0.11237663E+01  0.00000000E+00  0.00000000E+00  0.12376628E+00  0.10000000E+01  0.00000000E+00  0.00000000E+00  0.00000000E+00  0.10000000E+01  0.12351734E+02  0.61132914E+00 -0.62938802E-02  0.18908307E+01  0.97267174E+01  0.20403021E-01 -0.45476444E-02  0.20403021E-01  0.97316149E+01  0.12559981E+02  0.86554629E+01  0.86598210E+01  0.16825836E+01  0.18155929E-01 -0.40467884E-02  0.48705814E+01  0.10285731E+00  0.99584216E+01  0.20446063E+01  0.78545228E+00  0.80298968E+01  0.86603588E+01  0.13185009E+02 -0.19285248E+01 -0.12980628E+01  0.32265876E+01  0.44580392E+00  0.39517466E+01  0.36452149E+01 -0.15897958E+01 -0.44580392E+00  0.39517466E+01  0.31994110E+01 -0.23619508E+01 -0.31994110E+01 -0.23619508E+01 -0.36452149E+01 -0.15897958E+01  0.24430824E+07 -0.24629444E-06  0.81127246E+00  0.18872778E+00
  0.65000000E+00  0.65000000E+00  0.11258170E+01  0.00000000E+00  0.00000000E+00  0.12581702E+00  0.10000000E+01  0.00000000E+00  0.00000000E+00  0.00000000E+00  0.10000000E+01  0.12478289E+02  0.57192327E+00 -0.63260408E-02  0.18890497E+01  0.98966640E+01  0.20660138E-01 -0.45225674E-02  0.20660137E-01  0.99008678E+01  0.12689402E+02  0.87906505E+01  0.87943846E+01  0.16779367E+01  0.18351239E-01 -0.40171425E-02  0.48613984E+01  0.10446286E+00  0.10091479E+02  0.20758387E+01  0.78604938E+00  0.81674057E+01  0.87949350E+01  0.13312097E+02 -0.19240734E+01 -0.12965441E+01  0.32206176E+01  0.44373023E+00  0.39444349E+01  0.36378459E+01 -0.15879358E+01 -0.44373023E+00  0.39444349E+01  0.31941157E+01 -0.23564991E+01 -0.31941157E+01 -0.23564991E+01 -0.36378459E+01 -0.15879358E+01  0.25007214E+07 -0.25974259E-06  0.81151406E+00  0.18848620E+00
  0.66000000E+00  0.66000000E+00  0.11278715E+01  0.00000000E+00  0.00000000E+00  0.12787150E+00  0.10000000E+01  0.00000000E+00  0.00000000E+00  0.00000000E+00  0.10000000E+01  0.12604191E+02  0.53201479E+00 -0.63532745E-02  0.18872670E+01  0.10066533E+02  0.20912850E-01 -0.44915198E-02  0.20912850E-01  0.10070055E+02  0.12818159E+02  0.89252485E+01  0.89283710E+01  0.16732997E+01  0.18541873E-01 -0.39822975E-02  0.48521621E+01  0.10606834E+00  0.10223926E+02  0.21070866E+01  0.78663648E+00  0.83043084E+01  0.89289339E+01  0.13438536E+02 -0.19196176E+01 -0.12949921E+01  0.32146097E+01  0.44167693E+00  0.39370767E+01  0.36304469E+01 -0.15860349E+01 -0.44167693E+00  0.39370767E+01  0.31887700E+01 -0.23510418E+01 -0.31887700E+01 -0.23510418E+01 -0.36304469E+01 -0.15860349E+01  0.25590376E+07 -0.27348036E-06  0.81175570E+00  0.18824458E+00
  0.67000000E+00  0.67000000E+00  0.11299297E+01  0.00000000E+00  0.00000000E+00  0.12992973E+00  0.10000000E+01  0.00000000E+00  0.00000000E+00  0.00000000E+00  0.10000000E+01  0.12729444E+02  0.49160568E+00 -0.63751482E-02  0.18854827E+01  0.10236324E+02  0.21161129E-01 -0.44540097E-02  0.21161129E-01  0.10239174E+02  0.12946254E+02  0.90592572E+01  0.90617792E+01  0.16686725E+01  0.18727827E-01 -0.39418466E-02  0.48428766E+01  0.10767375E+00  0.10355764E+02  0.21383497E+01  0.78721451E+00  0.84406062E+01  0.90623544E+01  0.13564330E+02 -0.19151574E+01 -0.12934093E+01  0.32085667E+01  0.43964236E+00  0.39296756E+01  0.36230201E+01 -0.15840964E+01 -0.43964236E+00  0.39296756E+01  0.31833777E+01 -0.23455793E+01 -0.31833777E+01 -0.23455793E+01 -0.36230201E+01 -0.15840964E+01  0.26180257E+07 -0.28748719E-06  0.81199738E+00  0.18800291E+00
  0.68000000E+00  0.68000000E+00  0.11319917E+01  0.00000000E+00  0.00000000E+00  0.13199171E+00  0.10000000E+01  0.00000000E+00  0.00000000E+00  0.00000000E+00  0.10000000E+01  0.12854051E+02  0.45069885E+00 -0.63922310E-02  0.18836978E+01  0.10406035E+02  0.21404752E-01 -0.44107026E-02  0.21404752E-01  0.10408221E+02  0.13073693E+02  0.91926781E+01  0.91946090E+01  0.16640562E+01  0.18908930E-01 -0.38964089E-02  0.48335447E+01  0.10927908E+00  0.10486993E+02  0.21696279E+01  0.78778394E+00  0.85762999E+01  0.91951962E+01  0.13689484E+02 -0.19106935E+01 -0.12917972E+01  0.32024907E+01  0.43762581E+00  0.39222340E+01  0.36155672E+01 -0.15821220E+01 -0.43762581E+00  0.39222340E+01  0.31779414E+01 -0.23401121E+01 -0.31779414E+01 -0.23401121E+01 -0.36155672E+01 -0.15821220E+01  0.26776804E+07 -0.30174060E-06  0.81223911E+00  0.18776119E+00
  0.69000000E+00  0.69000000E+00  0.11340575E+01  0.00000000E+00  0.00000000E+00  0.13405746E+00  0.10000000E+01  0.00000000E+00  0.00000000E+00  0.00000000E+00  0.10000000E+01  0.12978018E+02  0.40929559E+00 -0.64043170E-02  0.18819116E+01  0.10575666E+02  0.21643832E-01 -0.43613463E-02  0.21643832E-01  0.10577196E+02  0.13200479E+02  0.93255113E+01  0.93268605E+01  0.16594500E+01  0.19085304E-01 -0.38457896E-02  0.48241694E+01  0.11088433E+00  0.10617617E+02  0.22009213E+01  0.78834524E+00  0.87113908E+01  0.93274596E+01  0.13814001E+02 -0.19062263E+01 -0.12901574E+01  0.31963837E+01  0.43562645E+00  0.39147546E+01  0.36080901E+01 -0.15801137E+01 -0.43562645E+00  0.39147546E+01  0.31724637E+01 -0.23346409E+01 -0.31724637E+01 -0.23346409E+01 -0.36080901E+01 -0.15801137E+01  0.27379961E+07 -0.31621643E-06  0.81248089E+00  0.18751943E+00
  0.70000000E+00  0.70000000E+00  0.11361270E+01  0.00000000E+00  0.00000000E+00  0.13612698E+00  0.10000000E+01  0.00000000E+00  0.00000000E+00  0.00000000E+00  0.10000000E+01  0.13101347E+02  0.36739850E+00 -0.64120645E-02  0.18801250E+01  0.10745215E+02  0.21878039E-01 -0.43067282E-02  0.21878039E-01  0.10746095E+02  0.13326617E+02  0.94577590E+01  0.94585334E+01  0.16548546E+01  0.19256685E-01 -0.37907102E-02  0.48147542E+01  0.11248950E+00  0.10747637E+02  0.22322296E+01  0.78889938E+00  0.88458809E+01  0.94591441E+01  0.13937885E+02 -0.19017558E+01 -0.12884925E+01  0.31902483E+01  0.43364260E+00  0.39072402E+01  0.36005906E+01 -0.15780746E+01 -0.43364260E+00  0.39072402E+01  0.31669480E+01 -0.23291656E+01 -0.31669480E+01 -0.23291656E+01 -0.36005906E+01 -0.15780746E+01  0.27989682E+07 -0.33088817E-06  0.81272270E+00  0.18727763E+00
  0.71000000E+00  0.71000000E+00  0.11382003E+01  0.00000000E+00  0.00000000E+00  0.13820027E+00  0.10000000E+01  0.00000000E+00  0.00000000E+00  0.00000000E+00  0.10000000E+01  0.13224043E+02  0.32500981E+00 -0.64146337E-02  0.18783383E+01  0.10914683E+02  0.22107276E-01 -0.42459063E-02  0.22107276E-01  0.10914917E+02  0.13452111E+02  0.95894219E+01  0.95896279E+01  0.16502705E+01  0.19423010E-01 -0.37303684E-02  0.48053016E+01  0.11409460E+00  0.10877054E+02  0.22635527E+01  0.78944670E+00  0.89797711E+01  0.95902499E+01  0.14061140E+02 -0.18972825E+01 -0.12868037E+01  0.31840861E+01  0.43167372E+00  0.38996932E+01  0.35930702E+01 -0.15760062E+01 -0.43167372E+00  0.38996932E+01  0.31613965E+01 -0.23236870E+01 -0.31613965E+01 -0.23236870E+01 -0.35930702E+01 -0.15760062E+01  0.28605914E+07 -0.34572757E-06  0.81296457E+00  0.18703578E+00
  0.72000000E+00  0.72000000E+00  0.11402773E+01  0.00000000E+00  0.00000000E+00  0.14027735E+00  0.10000000E+01  0.00000000E+00  0.00000000E+00  0.00000000E+00  0.10000000E+01  0.13346109E+02  0.28213203E+00 -0.64125176E-02  0.18765524E+01  0.11084068E+02  0.22331753E-01 -0.41794096E-02  0.22331753E-01  0.11083660E+02  0.13576963E+02  0.97205019E+01  0.97201438E+01  0.16456983E+01  0.19584492E-01 -0.36652570E-02  0.47958144E+01  0.11569961E+00  0.11005870E+02  0.22948907E+01  0.78998793E+00  0.91130632E+01  0.97207769E+01  0.14183769E+02 -0.18928065E+01 -0.12850928E+01  0.31778993E+01  0.42971848E+00  0.38921159E+01  0.35855305E+01 -0.15739108E+01 -0.42971848E+00  0.38921159E+01  0.31558120E+01 -0.23182051E+01 -0.31558120E+01 -0.23182051E+01 -0.35855305E+01 -0.15739108E+01  0.29228605E+07 -0.36070462E-06  0.81320648E+00  0.18679388E+00
  0.73000000E+00  0.73000000E+00  0.11423582E+01  0.00000000E+00  0.00000000E+00  0.14235822E+00  0.10000000E+01  0.00000000E+00  0.00000000E+00  0.00000000E+00  0.10000000E+01  0.13467549E+02  0.23876704E+00 -0.64063724E-02  0.18747673E+01  0.11253371E+02  0.22550847E-01 -0.41080738E-02  0.22550846E-01  0.11252321E+02  0.13701179E+02  0.98510000E+01  0.98500812E+01  0.16411378E+01  0.19740609E-01 -0.35961346E-02  0.47862954E+01  0.11730455E+00  0.11134087E+02  0.23262431E+01  0.79052367E+00  0.92457586E+01  0.98507251E+01  0.14305776E+02 -0.18883281E+01 -0.12833616E+01  0.31716897E+01  0.42777592E+00  0.38845107E+01  0.35779729E+01 -0.15717905E+01 -0.42777592E+00  0.38845107E+01  0.31501970E+01 -0.23127202E+01 -0.31501970E+01 -0.23127202E+01 -0.35779729E+01 -0.15717905E+01  0.29857706E+07 -0.37578756E-06  0.81344843E+00  0.18655194E+00
  0.74000000E+00  0.74000000E+00  0.11444429E+01  0.00000000E+00  0.00000000E+00  0.14444288E+00  0.10000000E+01  0.00000000E+00  0.00000000E+00  0.00000000E+00  0.10000000E+01  0.13588367E+02  0.19491704E+00 -0.63958372E-02  0.18729833E+01  0.11422591E+02  0.22764965E-01 -0.40314333E-02  0.22764965E-01  0.11420899E+02  0.13824761E+02  0.99809180E+01  0.99794403E+01  0.16365896E+01  0.19891745E-01 -0.35226163E-02  0.47767467E+01  0.11890940E+00  0.11261706E+02  0.23576101E+01  0.79105454E+00  0.93778590E+01  0.99800946E+01  0.14427165E+02 -0.18838473E+01 -0.12816117E+01  0.31654589E+01  0.42584489E+00  0.38768796E+01  0.35703987E+01 -0.15696473E+01 -0.42584489E+00  0.38768796E+01  0.31445538E+01 -0.23072323E+01 -0.31445538E+01 -0.23072323E+01 -0.35703987E+01 -0.15696473E+01  0.30493165E+07 -0.39094313E-06  0.81369043E+00  0.18630996E+00
  0.75000000E+00  0.75000000E+00  0.11465314E+01  0.00000000E+00  0.00000000E+00  0.14653135E+00  0.10000000E+01  0.00000000E+00  0.00000000E+00  0.00000000E+00  0.10000000E+01  0.13708566E+02  0.15058321E+00 -0.63811929E-02  0.18711997E+01  0.11591726E+02  0.22973369E-01 -0.39499190E-02  0.22973369E-01  0.11589392E+02  0.13947713E+02  0.10110257E+02  0.10108221E+02  0.16320528E+01  0.20037279E-01 -0.34451033E-02  0.47671703E+01  0.12051417E+00  0.11388730E+02  0.23889917E+01  0.79158123E+00  0.95093663E+01  0.10108886E+02  0.14547939E+02 -0.18793638E+01 -0.12798446E+01  0.31592084E+01  0.42392415E+00  0.38692243E+01  0.35628086E+01 -0.15674831E+01 -0.42392415E+00  0.38692243E+01  0.31388845E+01 -0.23017412E+01 -0.31388845E+01 -0.23017412E+01 -0.35628086E+01 -0.15674831E+01  0.31134927E+07 -0.40613548E-06  0.81393248E+00  0.18606793E+00
  0.76000000E+00  0.76000000E+00  0.11486236E+01  0.00000000E+00  0.00000000E+00  0.14862363E+00  0.10000000E+01  0.00000000E+00  0.00000000E+00  0.00000000E+00  0.10000000E+01  0.13828149E+02  0.10576802E+00 -0.63621844E-02  0.18694173E+01  0.11760779E+02  0.23176148E-01 -0.38632317E-02  0.23176147E-01  0.11757799E+02  0.14070038E+02  0.10239018E+02  0.10236424E+02  0.16275281E+01  0.20177321E-01 -0.33633577E-02  0.47575685E+01  0.12211885E+00  0.11515160E+02  0.24203877E+01  0.79210420E+00  0.96402823E+01  0.10237099E+02  0.14668100E+02 -0.18748781E+01 -0.12780617E+01  0.31529397E+01  0.42201291E+00  0.38615468E+01  0.35552041E+01 -0.15652995E+01 -0.42201291E+00  0.38615468E+01  0.31331912E+01 -0.22962473E+01 -0.31331912E+01 -0.22962473E+01 -0.35552041E+01 -0.15652995E+01  0.31782946E+07 -0.42132650E-06  0.81417456E+00  0.18582586E+00
  0.77000000E+00  0.77000000E+00  0.11507197E+01  0.00000000E+00  0.00000000E+00  0.15071973E+00  0.10000000E+01  0.00000000E+00  0.00000000E+00  0.00000000E+00  0.10000000E+01  0.13947121E+02  0.60473337E-01 -0.63382396E-02  0.18676361E+01  0.11929747E+02  0.23373516E-01 -0.37706873E-02  0.23373516E-01  0.11926117E+02  0.14191741E+02  0.10367205E+02  0.10364050E+02  0.16230156E+01  0.20312084E-01 -0.32768077E-02  0.47479433E+01  0.12372345E+00  0.11640999E+02  0.24517982E+01  0.79262427E+00  0.97706090E+01  0.10364734E+02  0.14787653E+02 -0.18703896E+01 -0.12762648E+01  0.31466544E+01  0.42010971E+00  0.38538489E+01  0.35475859E+01 -0.15630988E+01 -0.42010971E+00  0.38538489E+01  0.31274762E+01 -0.22907501E+01 -0.31274762E+01 -0.22907501E+01 -0.35475859E+01 -0.15630988E+01  0.32437169E+07 -0.43647685E-06  0.81441669E+00  0.18558375E+00
  0.78000000E+00  0.78000000E+00  0.11528197E+01  0.00000000E+00  0.00000000E+00  0.15281965E+00  0.10000000E+01  0.00000000E+00  0.00000000E+00  0.00000000E+00  0.10000000E+01  0.14065484E+02  0.14700855E-01 -0.63096326E-02  0.18658559E+01  0.12098630E+02  0.23565424E-01 -0.36726087E-02  0.23565424E-01  0.12094345E+02  0.14312824E+02  0.10494816E+02  0.10491099E+02  0.16185150E+01  0.20441553E-01 -0.31857616E-02  0.47382963E+01  0.12532795E+00  0.11766246E+02  0.24832230E+01  0.79314163E+00  0.99003474E+01  0.10491792E+02  0.14906600E+02 -0.18658990E+01 -0.12744547E+01  0.31403536E+01  0.41821427E+00  0.38461320E+01  0.35399552E+01 -0.15608818E+01 -0.41821427E+00  0.38461320E+01  0.31217409E+01 -0.22852502E+01 -0.31217409E+01 -0.22852502E+01 -0.35399552E+01 -0.15608818E+01  0.33097541E+07 -0.45154490E-06  0.81465886E+00  0.18534159E+00
  0.79000000E+00  0.79000000E+00  0.11549234E+01  0.00000000E+00  0.00000000E+00  0.15492341E+00  0.10000000E+01  0.00000000E+00  0.00000000E+00  0.00000000E+00  0.10000000E+01  0.14183241E+02 -0.31547450E-01 -0.62767130E-02  0.18640768E+01  0.12267428E+02  0.23751825E-01 -0.35694090E-02  0.23751825E-01  0.12262481E+02  0.14433291E+02  0.10621854E+02  0.10617571E+02  0.16140264E+01  0.20565715E-01 -0.30906023E-02  0.47286295E+01  0.12693238E+00  0.11890905E+02  0.25146621E+01  0.79365673E+00  0.10029499E+02  0.10618273E+02  0.15024944E+02 -0.18614061E+01 -0.12726325E+01  0.31340386E+01  0.41632582E+00  0.38383977E+01  0.35323129E+01 -0.15586501E+01 -0.41632582E+00  0.38383977E+01  0.31159870E+01 -0.22797476E+01 -0.31159870E+01 -0.22797476E+01 -0.35323129E+01 -0.15586501E+01  0.33764014E+07 -0.46648827E-06  0.81490107E+00  0.18509940E+00
  0.80000000E+00  0.80000000E+00  0.11570310E+01  0.00000000E+00  0.00000000E+00  0.15703100E+00  0.10000000E+01  0.00000000E+00  0.00000000E+00  0.00000000E+00  0.10000000E+01  0.14300395E+02 -0.78269418E-01 -0.62404518E-02  0.18622995E+01  0.12436140E+02  0.23932124E-01 -0.34623106E-02  0.23932124E-01  0.12430525E+02  0.14553144E+02  0.10748321E+02  0.10743467E+02  0.16095502E+01  0.20684082E-01 -0.29924096E-02  0.47189446E+01  0.12853671E+00  0.12014977E+02  0.25461154E+01  0.79417024E+00  0.10158066E+02  0.10744178E+02  0.15142688E+02 -0.18569110E+01 -0.12707998E+01  0.31277108E+01  0.41444319E+00  0.38306477E+01  0.35246599E+01 -0.15564055E+01 -0.41444319E+00  0.38306477E+01  0.31102167E+01 -0.22742422E+01 -0.31102167E+01 -0.22742422E+01 -0.35246599E+01 -0.15564055E+01  0.34436538E+07 -0.48126142E-06  0.81514332E+00  0.18485716E+00
  0.81000000E+00  0.81000000E+00  0.11591424E+01  0.00000000E+00  0.00000000E+00  0.15914245E+00  0.10000000E+01  0.00000000E+00  0.00000000E+00  0.00000000E+00  0.10000000E+01  0.14416950E+02 -0.12546332E+00 -0.62004435E-02  0.18605238E+01  0.12604768E+02  0.24106490E-01 -0.33508315E-02  0.24106490E-01  0.12598473E+02  0.14672387E+02  0.10874218E+02  0.10868788E+02  0.16050864E+01  0.20796831E-01 -0.28907850E-02  0.47092432E+01  0.13014095E+00  0.12138464E+02  0.25775828E+01  0.79468303E+00  0.10286052E+02  0.10869506E+02  0.15259836E+02 -0.18524130E+01 -0.12689583E+01  0.31213713E+01  0.41256474E+00  0.38228835E+01  0.35169966E+01 -0.15541502E+01 -0.41256474E+00  0.38228835E+01  0.31044318E+01 -0.22687333E+01 -0.31044318E+01 -0.22687333E+01 -0.35169966E+01 -0.15541502E+01  0.35115062E+07 -0.49581708E-06  0.81538562E+00  0.18461488E+00
  0.82000000E+00  0.82000000E+00  0.11612577E+01  0.00000000E+00  0.00000000E+00  0.16125774E+00  0.10000000E+01  0.00000000E+00  0.00000000E+00  0.00000000E+00  0.10000000E+01  0.14532908E+02 -0.17312704E+00 -0.61571051E-02  0.18587502E+01  0.12773311E+02  0.24275023E-01 -0.32354505E-02  0.24275023E-01  0.12766326E+02  0.14791023E+02  0.10999549E+02  0.10993534E+02  0.16006353E+01  0.20904078E-01 -0.27861607E-02  0.46995267E+01  0.13174510E+00  0.12261368E+02  0.26090645E+01  0.79519531E+00  0.10413456E+02  0.10994260E+02  0.15376389E+02 -0.18479124E+01 -0.12671087E+01  0.31150211E+01  0.41069020E+00  0.38151061E+01  0.35093239E+01 -0.15518849E+01 -0.41069020E+00  0.38151061E+01  0.30986337E+01 -0.22632212E+01 -0.30986337E+01 -0.22632212E+01 -0.35093239E+01 -0.15518849E+01  0.35799537E+07 -0.51010610E-06  0.81562795E+00  0.18437256E+00
  0.83000000E+00  0.83000000E+00  0.11633769E+01  0.00000000E+00  0.00000000E+00  0.16337689E+00  0.10000000E+01  0.00000000E+00  0.00000000E+00  0.00000000E+00  0.10000000E+01  0.14648272E+02 -0.22125892E+00 -0.61102244E-02  0.18569785E+01  0.12941769E+02  0.24437506E-01 -0.31159700E-02  0.24437506E-01  0.12934081E+02  0.14909053E+02  0.11124313E+02  0.11117705E+02  0.15961968E+01  0.21005665E-01 -0.26783840E-02  0.46897963E+01  0.13334916E+00  0.12383691E+02  0.26405604E+01  0.79570751E+00  0.10540282E+02  0.11118439E+02  0.15492352E+02 -0.18434091E+01 -0.12652520E+01  0.31086610E+01  0.40881881E+00  0.38073167E+01  0.35016424E+01 -0.15496109E+01 -0.40881881E+00  0.38073167E+01  0.30928235E+01 -0.22577058E+01 -0.30928235E+01 -0.22577058E+01 -0.35016424E+01 -0.15496109E+01  0.36489910E+07 -0.52407649E-06  0.81587032E+00  0.18413021E+00
  0.84000000E+00  0.84000000E+00  0.11654999E+01  0.00000000E+00  0.00000000E+00  0.16549992E+00  0.10000000E+01  0.00000000E+00  0.00000000E+00  0.00000000E+00  0.10000000E+01  0.14763045E+02 -0.26985728E+00 -0.60603706E-02  0.18552087E+01  0.13110142E+02  0.24594277E-01 -0.29930113E-02  0.24594277E-01  0.13101739E+02  0.15026483E+02  0.11248513E+02  0.11241304E+02  0.15917708E+01  0.21101912E-01 -0.25680059E-02  0.46800535E+01  0.13495313E+00  0.12505433E+02  0.26720706E+01  0.79622014E+00  0.10666530E+02  0.11242044E+02  0.15607726E+02 -0.18389030E+01 -0.12633893E+01  0.31022923E+01  0.40694967E+00  0.37995165E+01  0.34939527E+01 -0.15473295E+01 -0.40694967E+00  0.37995165E+01  0.30870030E+01 -0.22521870E+01 -0.30870030E+01 -0.22521870E+01 -0.34939527E+01 -0.15473295E+01  0.37186133E+07 -0.53767494E-06  0.81611273E+00  0.18388781E+00
  0.85000000E+00  0.85000000E+00  0.11676268E+01  0.00000000E+00  0.00000000E+00  0.16762681E+00  0.10000000E+01  0.00000000E+00  0.00000000E+00  0.00000000E+00  0.10000000E+01  0.14877230E+02 -0.31892046E+00 -0.60072553E-02  0.18534406E+01  0.13278429E+02  0.24745141E-01 -0.28662832E-02  0.24745141E-01  0.13269297E+02  0.15143314E+02  0.11372151E+02  0.11364330E+02  0.15873570E+01  0.21192680E-01 -0.24547939E-02  0.46702993E+01  0.13655700E+00  0.12626599E+02  0.27035951E+01  0.79673344E+00  0.10792204E+02  0.11365077E+02  0.15722514E+02 -0.18343943E+01 -0.12615212E+01  0.30959155E+01  0.40508245E+00  0.37917066E+01  0.34862554E+01 -0.15450416E+01 -0.40508245E+00  0.37917066E+01  0.30811730E+01 -0.22466650E+01 -0.30811730E+01 -0.22466650E+01 -0.34862554E+01 -0.15450416E+01  0.37888155E+07 -0.55084553E-06  0.81635517E+00  0.18364538E+00
  0.86000000E+00  0.86000000E+00  0.11697576E+01  0.00000000E+00  0.00000000E+00  0.16975759E+00  0.10000000E+01  0.00000000E+00  0.00000000E+00  0.00000000E+00  0.10000000E+01  0.14990831E+02 -0.36844663E+00 -0.59504898E-02  0.18516744E+01  0.13446631E+02  0.24890201E-01 -0.27353303E-02  0.24890200E-01  0.13436755E+02  0.15259550E+02  0.11495229E+02  0.11486786E+02  0.15829557E+01  0.21278084E-01 -0.23383735E-02  0.46605349E+01  0.13816077E+00  0.12747188E+02  0.27351341E+01  0.79724793E+00  0.10917306E+02  0.11487539E+02  0.15836720E+02 -0.18298827E+01 -0.12596488E+01  0.30895315E+01  0.40321623E+00  0.37838878E+01  0.34785511E+01 -0.15427484E+01 -0.40321623E+00  0.37838878E+01  0.30753349E+01 -0.22411394E+01 -0.30753349E+01 -0.22411394E+01 -0.34785511E+01 -0.15427484E+01  0.38595929E+07 -0.56352992E-06  0.81659764E+00  0.18340292E+00
  0.87000000E+00  0.87000000E+00  0.11718923E+01  0.00000000E+00  0.00000000E+00  0.17189226E+00  0.10000000E+01  0.00000000E+00  0.00000000E+00  0.00000000E+00  0.10000000E+01  0.15103850E+02 -0.41843415E+00 -0.58899988E-02  0.18499100E+01  0.13614748E+02  0.25029298E-01 -0.26001016E-02  0.25029298E-01  0.13604113E+02  0.15375193E+02  0.11617747E+02  0.11608672E+02  0.15785666E+01  0.21358020E-01 -0.22187206E-02  0.46507615E+01  0.13976445E+00  0.12867204E+02  0.27666876E+01  0.79776408E+00  0.11041836E+02  0.11609431E+02  0.15950345E+02 -0.18253680E+01 -0.12577732E+01  0.30831412E+01  0.40135016E+00  0.37760614E+01  0.34708402E+01 -0.15404513E+01 -0.40135016E+00  0.37760614E+01  0.30694900E+01 -0.22356101E+01 -0.30694900E+01 -0.22356101E+01 -0.34708402E+01 -0.15404513E+01  0.39309403E+07 -0.57566736E-06  0.81684015E+00  0.18316043E+00
  0.88000000E+00  0.88000000E+00  0.11740308E+01  0.00000000E+00  0.00000000E+00  0.17403082E+00  0.10000000E+01  0.00000000E+00  0.00000000E+00  0.00000000E+00  0.10000000E+01  0.15216288E+02 -0.46888123E+00 -0.58259740E-02  0.18481474E+01  0.13782780E+02  0.25162937E-01 -0.24607466E-02  0.25162937E-01  0.13771367E+02  0.15490246E+02  0.11739709E+02  0.11729988E+02  0.15741898E+01  0.21432944E-01 -0.20959812E-02  0.46409800E+01  0.14136803E+00  0.12986648E+02  0.27982554E+01  0.79828238E+00  0.11165797E+02  0.11730752E+02  0.16063393E+02 -0.18208501E+01 -0.12558953E+01  0.30767454E+01  0.39948342E+00  0.37682281E+01  0.34631230E+01 -0.15381513E+01 -0.39948342E+00  0.37682281E+01  0.30636396E+01 -0.22300769E+01 -0.30636396E+01 -0.22300769E+01 -0.34631230E+01 -0.15381513E+01  0.40028528E+07 -0.58719375E-06  0.81708268E+00  0.18291790E+00
  0.89000000E+00  0.89000000E+00  0.11761733E+01  0.00000000E+00  0.00000000E+00  0.17617328E+00  0.10000000E+01  0.00000000E+00  0.00000000E+00  0.00000000E+00  0.10000000E+01  0.15328150E+02 -0.51978583E+00 -0.57591267E-02  0.18463872E+01  0.13950727E+02  0.25290920E-01 -0.23181467E-02  0.25290920E-01  0.13938519E+02  0.15604712E+02  0.11861115E+02  0.11850736E+02  0.15698258E+01  0.21502716E-01 -0.19709228E-02  0.46311917E+01  0.14297151E+00  0.13105521E+02  0.28298377E+01  0.79880324E+00  0.11289192E+02  0.11851505E+02  0.16175866E+02 -0.18163289E+01 -0.12540159E+01  0.30703449E+01  0.39761536E+00  0.37603891E+01  0.34554002E+01 -0.15358496E+01 -0.39761536E+00  0.37603891E+01  0.30577848E+01 -0.22245396E+01 -0.30577848E+01 -0.22245396E+01 -0.34554002E+01 -0.15358496E+01  0.40753256E+07 -0.59804310E-06  0.81732525E+00  0.18267535E+00
  0.90000000E+00  0.90000000E+00  0.11783197E+01  0.00000000E+00  0.00000000E+00  0.17831965E+00  0.10000000E+01  0.00000000E+00  0.00000000E+00  0.00000000E+00  0.10000000E+01  0.15439438E+02 -0.57114638E+00 -0.56895166E-02  0.18446291E+01  0.14118590E+02  0.25413029E-01 -0.21724268E-02  0.25413029E-01  0.14105566E+02  0.15718593E+02  0.11981969E+02  0.11970916E+02  0.15654742E+01  0.21567177E-01 -0.18436650E-02  0.46213974E+01  0.14457489E+00  0.13223826E+02  0.28614346E+01  0.79932687E+00  0.11412022E+02  0.11971691E+02  0.16287766E+02 -0.18118045E+01 -0.12521357E+01  0.30639402E+01  0.39574563E+00  0.37525451E+01  0.34476722E+01 -0.15335468E+01 -0.39574563E+00  0.37525451E+01  0.30519265E+01 -0.22189983E+01 -0.30519265E+01 -0.22189983E+01 -0.34476722E+01 -0.15335468E+01  0.41483541E+07 -0.60814716E-06  0.81756784E+00  0.18243277E+00
  0.91000000E+00  0.91000000E+00  0.11804699E+01  0.00000000E+00  0.00000000E+00  0.18046994E+00  0.10000000E+01  0.00000000E+00  0.00000000E+00  0.00000000E+00  0.10000000E+01  0.15550154E+02 -0.62296120E+00 -0.56166537E-02  0.18428731E+01  0.14286368E+02  0.25529172E-01 -0.20230428E-02  0.25529172E-01  0.14272509E+02  0.15831892E+02  0.12102272E+02  0.12090531E+02  0.15611351E+01  0.21626279E-01 -0.17137604E-02  0.46115978E+01  0.14617817E+00  0.13341565E+02  0.28930461E+01  0.79985367E+00  0.11534288E+02  0.12091310E+02  0.16399097E+02 -0.18072767E+01 -0.12502553E+01  0.30575320E+01  0.39387356E+00  0.37446966E+01  0.34399392E+01 -0.15312438E+01 -0.39387356E+00  0.37446966E+01  0.30460656E+01 -0.22134528E+01 -0.30460656E+01 -0.22134528E+01 -0.34399392E+01 -0.15312438E+01  0.42219330E+07 -0.61742903E-06  0.81781046E+00  0.18219016E+00
  0.92000000E+00  0.92000000E+00  0.11826242E+01  0.00000000E+00  0.00000000E+00  0.18262416E+00  0.10000000E+01  0.00000000E+00  0.00000000E+00  0.00000000E+00  0.10000000E+01  0.15660302E+02 -0.67522877E+00 -0.55411254E-02  0.18411191E+01  0.14454062E+02  0.25639290E-01 -0.18707171E-02  0.25639291E-01  0.14439346E+02  0.15944612E+02  0.12222025E+02  0.12209582E+02  0.15568083E+01  0.21679999E-01 -0.15818338E-02  0.46017938E+01  0.14778135E+00  0.13458740E+02  0.29246725E+01  0.80038407E+00  0.11655994E+02  0.12210364E+02  0.16509861E+02 -0.18027452E+01 -0.12483757E+01  0.30511209E+01  0.39199843E+00  0.37368446E+01  0.34322016E+01 -0.15289417E+01 -0.39199843E+00  0.37368446E+01  0.30402032E+01 -0.22079029E+01 -0.30402032E+01 -0.22079029E+01 -0.34322016E+01 -0.15289417E+01  0.42960577E+07 -0.62581769E-06  0.81805310E+00  0.18194752E+00
  0.93000000E+00  0.93000000E+00  0.11847823E+01  0.00000000E+00  0.00000000E+00  0.18478230E+00  0.10000000E+01  0.00000000E+00  0.00000000E+00  0.00000000E+00  0.10000000E+01  0.15769882E+02 -0.72794721E+00 -0.54628355E-02  0.18393672E+01  0.14621672E+02  0.25743445E-01 -0.17153378E-02  0.25743445E-01  0.14606078E+02  0.16056756E+02  0.12341231E+02  0.12328069E+02  0.15524938E+01  0.21728418E-01 -0.14478083E-02  0.45919862E+01  0.14938442E+00  0.13575352E+02  0.29563137E+01  0.80091822E+00  0.11777141E+02  0.12328855E+02  0.16620059E+02 -0.17982102E+01 -0.12464971E+01  0.30447074E+01  0.39012008E+00  0.37289897E+01  0.34244599E+01 -0.15266410E+01 -0.39012008E+00  0.37289897E+01  0.30343398E+01 -0.22023488E+01 -0.30343398E+01 -0.22023488E+01 -0.34244599E+01 -0.15266410E+01  0.43707233E+07 -0.63323553E-06  0.81829577E+00  0.18170487E+00
  0.94000000E+00  0.94000000E+00  0.11869444E+01  0.00000000E+00  0.00000000E+00  0.18694439E+00  0.10000000E+01  0.00000000E+00  0.00000000E+00  0.00000000E+00  0.10000000E+01  0.15878899E+02 -0.78111490E+00 -0.53818046E-02  0.18376175E+01  0.14789197E+02  0.25841335E-01 -0.15570102E-02  0.25841335E-01  0.14772702E+02  0.16168325E+02  0.12459890E+02  0.12445993E+02  0.15481917E+01  0.21771311E-01 -0.13117801E-02  0.45821759E+01  0.15098739E+00  0.13691403E+02  0.29879697E+01  0.80145675E+00  0.11897731E+02  0.12446782E+02  0.16729695E+02 -0.17936714E+01 -0.12446208E+01  0.30382922E+01  0.38823739E+00  0.37211328E+01  0.34167142E+01 -0.15243429E+01 -0.38823739E+00  0.37211328E+01  0.30284768E+01 -0.21967898E+01 -0.30284768E+01 -0.21967898E+01 -0.34167142E+01 -0.15243429E+01  0.44459250E+07 -0.63960029E-06  0.81853845E+00  0.18146219E+00
  0.95000000E+00  0.95000000E+00  0.11891104E+01  0.00000000E+00  0.00000000E+00  0.18911042E+00  0.10000000E+01  0.00000000E+00  0.00000000E+00  0.00000000E+00  0.10000000E+01  0.15987355E+02 -0.83473067E+00 -0.52981179E-02  0.18358690E+01  0.14956638E+02  0.25932808E-01 -0.13958832E-02  0.25932808E-01  0.14939218E+02  0.16279323E+02  0.12578006E+02  0.12563356E+02  0.15439012E+01  0.21808579E-01 -0.11738886E-02  0.45723638E+01  0.15259026E+00  0.13806895E+02  0.30196406E+01  0.80199979E+00  0.12017766E+02  0.12564148E+02  0.16838771E+02 -0.17891288E+01 -0.12427471E+01  0.30318759E+01  0.38635023E+00  0.37132744E+01  0.34089651E+01 -0.15220481E+01 -0.38635023E+00  0.37132744E+01  0.30226149E+01 -0.21912263E+01 -0.30226149E+01 -0.21912263E+01 -0.34089651E+01 -0.15220481E+01  0.45216579E+07 -0.64482625E-06  0.81878115E+00  0.18121949E+00
  0.96000000E+00  0.96000000E+00  0.11912804E+01  0.00000000E+00  0.00000000E+00  0.19128040E+00  0.10000000E+01  0.00000000E+00  0.00000000E+00  0.00000000E+00  0.10000000E+01  0.16095252E+02 -0.88879245E+00 -0.52119238E-02  0.18341224E+01  0.15123993E+02  0.26017916E-01 -0.12321453E-02  0.26017916E-01  0.15105626E+02  0.16389752E+02  0.12695578E+02  0.12680160E+02  0.15396228E+01  0.21840295E-01 -0.10343033E-02  0.45625504E+01  0.15419302E+00  0.13921830E+02  0.30513262E+01  0.80254752E+00  0.12137247E+02  0.12680954E+02  0.16947289E+02 -0.17845826E+01 -0.12408763E+01  0.30254589E+01  0.38445837E+00  0.37054153E+01  0.34012130E+01 -0.15197569E+01 -0.38445837E+00  0.37054153E+01  0.30167546E+01 -0.21856584E+01 -0.30167546E+01 -0.21856584E+01 -0.34012130E+01 -0.15197569E+01  0.45979172E+07 -0.64882421E-06  0.81902388E+00  0.18097677E+00
  0.97000000E+00  0.97000000E+00  0.11934543E+01  0.00000000E+00  0.00000000E+00  0.19345434E+00  0.10000000E+01  0.00000000E+00  0.00000000E+00  0.00000000E+00  0.10000000E+01  0.16202593E+02 -0.94329859E+00 -0.51235416E-02  0.18323778E+01  0.15291265E+02  0.26096396E-01 -0.10662522E-02  0.26096396E-01  0.15271924E+02  0.16499614E+02  0.12812610E+02  0.12796404E+02  0.15353564E+01  0.21866271E-01 -0.89341652E-03  0.45527366E+01  0.15579567E+00  0.14036210E+02  0.30830270E+01  0.80310049E+00  0.12256177E+02  0.12797200E+02  0.17055251E+02 -0.17800323E+01 -0.12390096E+01  0.30190419E+01  0.38256086E+00  0.36975560E+01  0.33934579E+01 -0.15174706E+01 -0.38256086E+00  0.36975560E+01  0.30108970E+01 -0.21800854E+01 -0.30108970E+01 -0.21800854E+01 -0.33934579E+01 -0.15174706E+01  0.46746984E+07 -0.65149875E-06  0.81926662E+00  0.18073403E+00
  0.98000000E+00  0.98000000E+00  0.11956323E+01  0.00000000E+00  0.00000000E+00  0.19563225E+00  0.10000000E+01  0.00000000E+00  0.00000000E+00  0.00000000E+00  0.10000000E+01  0.16309380E+02 -0.99824736E+00 -0.50327746E-02  0.18306352E+01  0.15458453E+02  0.26168628E-01 -0.89791977E-03  0.26168627E-01  0.15438113E+02  0.16608913E+02  0.12929104E+02  0.12912092E+02  0.15311023E+01  0.21886853E-01 -0.75100021E-03  0.45429227E+01  0.15739821E+00  0.14150036E+02  0.31147428E+01  0.80365901E+00  0.12374558E+02  0.12912889E+02  0.17162661E+02 -0.17754778E+01 -0.12371472E+01  0.30126251E+01  0.38065721E+00  0.36896971E+01  0.33857000E+01 -0.15151897E+01 -0.38065721E+00  0.36896971E+01  0.30050428E+01 -0.21745074E+01 -0.30050428E+01 -0.21745074E+01 -0.33857000E+01 -0.15151897E+01  0.47519968E+07 -0.65275080E-06  0.81950937E+00  0.18049128E+00
  0.99000000E+00  0.99000000E+00  0.11978141E+01  0.00000000E+00  0.00000000E+00  0.19781413E+00  0.10000000E+01  0.00000000E+00  0.00000000E+00  0.00000000E+00  0.10000000E+01  0.16415615E+02 -0.10536372E+01 -0.49396430E-02  0.18288946E+01  0.15625558E+02  0.26234237E-01 -0.72727146E-03  0.26234236E-01  0.15604192E+02  0.16717649E+02  0.13045060E+02  0.13027223E+02  0.15268601E+01  0.21901759E-01 -0.60716550E-03  0.45331096E+01  0.15900064E+00  0.14263311E+02  0.31464739E+01  0.80422319E+00  0.12492392E+02  0.13028021E+02  0.17269520E+02 -0.17709193E+01 -0.12352897E+01  0.30062090E+01  0.37874735E+00  0.36818390E+01  0.33779398E+01 -0.15129147E+01 -0.37874735E+00  0.36818390E+01  0.29991925E+01 -0.21689243E+01 -0.29991925E+01 -0.21689243E+01 -0.33779398E+01 -0.15129147E+01  0.48298075E+07 -0.65247465E-06  0.81975213E+00  0.18024852E+00
  0.10000000E+01  0.10000000E+01  0.12000000E+01  0.00000000E+00  0.00000000E+00  0.20000000E+00  0.10000000E+01  0.00000000E+00  0.00000000E+00  0.00000000E+00  0.10000000E+01  0.16521301E+02 -0.11094665E+01 -0.48444688E-02  0.18271559E+01  0.15792578E+02  0.26293232E-01 -0.55471615E-03  0.26293232E-01  0.15770160E+02  0.16825827E+02  0.13160482E+02  0.13141800E+02  0.15226299E+01  0.21911027E-01 -0.46226340E-03  0.45232977E+01  0.16060296E+00  0.14376036E+02  0.31782202E+01  0.80479337E+00  0.12609680E+02  0.13142599E+02  0.17375830E+02 -0.17663566E+01 -0.12334375E+01  0.29997941E+01  0.37683071E+00  0.36739824E+01  0.33701775E+01 -0.15106462E+01 -0.37683071E+00  0.36739824E+01  0.29933467E+01 -0.21633362E+01 -0.29933467E+01 -0.21633362E+01 -0.33701775E+01 -0.15106462E+01  0.49081260E+07 -0.65056408E-06  0.81999491E+00  0.18000574E+00
